   4
   -0.52513631
H      -0.64339500     -1.00387300     44.36776800
H      -0.07999000      2.62836600     44.02048300
H       0.21730300      2.12418700     43.56462800
S      -1.06339200     -0.02282500     43.55193200
   4
   -0.55076591
H      -0.64339500     -1.00387300     44.36776800
H      -0.02876200      2.71424600     44.02099100
H       0.26853100      2.21006700     43.56513600
S      -1.06339200     -0.02282500     43.55193200
   4
   -0.56891752
H      -0.64339500     -1.00387300     44.36776800
H       0.02246500      2.80012700     44.02149900
H       0.31975900      2.29594800     43.56564400
S      -1.06339200     -0.02282500     43.55193200
   4
   -0.58146941
H      -0.64339500     -1.00387300     44.36776800
H       0.07369300      2.88600700     44.02200700
H       0.37098700      2.38182800     43.56615100
S      -1.06339200     -0.02282500     43.55193200
   4
   -0.58991518
H      -0.64339500     -1.00387300     44.36776800
H       0.12492100      2.97188800     44.02251400
H       0.42221500      2.46770900     43.56665900
S      -1.06339200     -0.02282500     43.55193200
   4
   -0.59540807
H      -0.64339500     -1.00387300     44.36776800
H       0.17614900      3.05776800     44.02302200
H       0.47344200      2.55358900     43.56716700
S      -1.06339200     -0.02282500     43.55193200
   4
   -0.59881646
H      -0.64339500     -1.00387300     44.36776800
H       0.22737700      3.14364900     44.02353000
H       0.52467000      2.63946900     43.56767500
S      -1.06339200     -0.02282500     43.55193200
   4
   -0.60077988
H      -0.64339500     -1.00387300     44.36776800
H       0.27860500      3.22952900     44.02403800
H       0.57589800      2.72535000     43.56818300
S      -1.06339200     -0.02282500     43.55193200
   4
   -0.60176089
H      -0.64339500     -1.00387300     44.36776800
H       0.32983200      3.31540900     44.02454600
H       0.62712600      2.81123000     43.56869100
S      -1.06339200     -0.02282500     43.55193200
   4
   -0.60208890
H      -0.64339500     -1.00387300     44.36776800
H       0.38106000      3.40129000     44.02505400
H       0.67835400      2.89711100     43.56919800
S      -1.06339200     -0.02282500     43.55193200
   4
   -0.60199521
H      -0.64339500     -1.00387300     44.36776800
H       0.43228800      3.48717000     44.02556100
H       0.72958200      2.98299100     43.56970600
S      -1.06339200     -0.02282500     43.55193200
   4
   -0.60164013
H      -0.64339500     -1.00387300     44.36776800
H       0.48351600      3.57305100     44.02606900
H       0.78080900      3.06887200     43.57021400
S      -1.06339200     -0.02282500     43.55193200
   4
   -0.60113330
H      -0.64339500     -1.00387300     44.36776800
H       0.53474400      3.65893100     44.02657700
H       0.83203700      3.15475200     43.57072200
S      -1.06339200     -0.02282500     43.55193200
   4
   -0.60054848
H      -0.64339500     -1.00387300     44.36776800
H       0.58597200      3.74481200     44.02708500
H       0.88326500      3.24063300     43.57123000
S      -1.06339200     -0.02282500     43.55193200
   4
   -0.59993444
H      -0.64339500     -1.00387300     44.36776800
H       0.63719900      3.83069200     44.02759300
H       0.93449300      3.32651300     43.57173800
S      -1.06339200     -0.02282500     43.55193200
   4
   -0.59932253
H      -0.64339500     -1.00387300     44.36776800
H       0.68842700      3.91657300     44.02810100
H       0.98572100      3.41239400     43.57224500
S      -1.06339200     -0.02282500     43.55193200
   4
   -0.59873223
H      -0.64339500     -1.00387300     44.36776800
H       0.73965500      4.00245300     44.02860800
H       1.03694900      3.49827400     43.57275300
S      -1.06339200     -0.02282500     43.55193200
   4
   -0.59817489
H      -0.64339500     -1.00387300     44.36776800
H       0.79088300      4.08833400     44.02911600
H       1.08817600      3.58415400     43.57326100
S      -1.06339200     -0.02282500     43.55193200
   4
   -0.59765647
H      -0.64339500     -1.00387300     44.36776800
H       0.84211100      4.17421400     44.02962400
H       1.13940400      3.67003500     43.57376900
S      -1.06339200     -0.02282500     43.55193200
   4
   -0.59717932
H      -0.64339500     -1.00387300     44.36776800
H       0.89333900      4.26009400     44.03013200
H       1.19063200      3.75591500     43.57427700
S      -1.06339200     -0.02282500     43.55193200
   4
   -0.59674352
H      -0.64339500     -1.00387300     44.36776800
H       0.94456600      4.34597500     44.03064000
H       1.24186000      3.84179600     43.57478500
S      -1.06339200     -0.02282500     43.55193200
   4
   -0.59634769
H      -0.64339500     -1.00387300     44.36776800
H       0.99579400      4.43185500     44.03114800
H       1.29308800      3.92767600     43.57529200
S      -1.06339200     -0.02282500     43.55193200
   4
   -0.59598965
H      -0.64339500     -1.00387300     44.36776800
H       1.04702200      4.51773600     44.03165500
H       1.34431500      4.01355700     43.57580000
S      -1.06339200     -0.02282500     43.55193200
   4
   -0.59566675
H      -0.64339500     -1.00387300     44.36776800
H       1.09825000      4.60361600     44.03216300
H       1.39554300      4.09943700     43.57630800
S      -1.06339200     -0.02282500     43.55193200
   4
   -0.59537618
H      -0.64339500     -1.00387300     44.36776800
H       1.14947800      4.68949700     44.03267100
H       1.44677100      4.18531800     43.57681600
S      -1.06339200     -0.02282500     43.55193200
   4
   -0.59511511
H      -0.64339500     -1.00387300     44.36776800
H       1.20070500      4.77537700     44.03317900
H       1.49799900      4.27119800     43.57732400
S      -1.06339200     -0.02282500     43.55193200
   4
   -0.59488079
H      -0.64339500     -1.00387300     44.36776800
H       1.25193300      4.86125800     44.03368700
H       1.54922700      4.35707900     43.57783200
S      -1.06339200     -0.02282500     43.55193200
   4
   -0.59467064
H      -0.64339500     -1.00387300     44.36776800
H       1.30316100      4.94713800     44.03419500
H       1.60045500      4.44295900     43.57833900
S      -1.06339200     -0.02282500     43.55193200
   4
   -0.59448224
H      -0.64339500     -1.00387300     44.36776800
H       1.35438900      5.03301800     44.03470200
H       1.65168200      4.52883900     43.57884700
S      -1.06339200     -0.02282500     43.55193200
   4
   -0.59431339
H      -0.64339500     -1.00387300     44.36776800
H       1.40561700      5.11889900     44.03521000
H       1.70291000      4.61472000     43.57935500
S      -1.06339200     -0.02282500     43.55193200
   4
   -0.59416207
H      -0.64339500     -1.00387300     44.36776800
H       1.45684500      5.20477900     44.03571800
H       1.75413800      4.70060000     43.57986300
S      -1.06339200     -0.02282500     43.55193200
   4
   -0.59402645
H      -0.64339500     -1.00387300     44.36776800
H       1.50807200      5.29066000     44.03622600
H       1.80536600      4.78648100     43.58037100
S      -1.06339200     -0.02282500     43.55193200
   4
   -0.59390490
H      -0.64339500     -1.00387300     44.36776800
H       1.55930000      5.37654000     44.03673400
H       1.85659400      4.87236100     43.58087900
S      -1.06339200     -0.02282500     43.55193200
   4
   -0.59379594
H      -0.64339500     -1.00387300     44.36776800
H       1.61052800      5.46242100     44.03724200
H       1.90782200      4.95824200     43.58138600
S      -1.06339200     -0.02282500     43.55193200
   4
   -0.59369823
H      -0.64339500     -1.00387300     44.36776800
H       1.66175600      5.54830100     44.03774900
H       1.95904900      5.04412200     43.58189400
S      -1.06339200     -0.02282500     43.55193200
   4
   -0.59361061
H      -0.64339500     -1.00387300     44.36776800
H       1.71298400      5.63418200     44.03825700
H       2.01027700      5.13000300     43.58240200
S      -1.06339200     -0.02282500     43.55193200
   4
   -0.59353200
H      -0.64339500     -1.00387300     44.36776800
H       1.76421200      5.72006200     44.03876500
H       2.06150500      5.21588300     43.58291000
S      -1.06339200     -0.02282500     43.55193200
   4
   -0.59346147
H      -0.64339500     -1.00387300     44.36776800
H       1.81543900      5.80594300     44.03927300
H       2.11273300      5.30176300     43.58341800
S      -1.06339200     -0.02282500     43.55193200
   4
   -0.59339816
H      -0.64339500     -1.00387300     44.36776800
H       1.86666700      5.89182300     44.03978100
H       2.16396100      5.38764400     43.58392600
S      -1.06339200     -0.02282500     43.55193200
   4
   -0.59334132
H      -0.64339500     -1.00387300     44.36776800
H       1.91789500      5.97770300     44.04028900
H       2.21518900      5.47352400     43.58443300
S      -1.06339200     -0.02282500     43.55193200
   4
   -0.59329028
H      -0.64339500     -1.00387300     44.36776800
H       1.96912300      6.06358400     44.04079600
H       2.26641600      5.55940500     43.58494100
S      -1.06339200     -0.02282500     43.55193200
   4
   -0.59324444
H      -0.64339500     -1.00387300     44.36776800
H       2.02035100      6.14946400     44.04130400
H       2.31764400      5.64528500     43.58544900
S      -1.06339200     -0.02282500     43.55193200
   4
   -0.59320326
H      -0.64339500     -1.00387300     44.36776800
H       2.07157800      6.23534500     44.04181200
H       2.36887200      5.73116600     43.58595700
S      -1.06339200     -0.02282500     43.55193200
   4
   -0.59316625
H      -0.64339500     -1.00387300     44.36776800
H       2.12280600      6.32122500     44.04232000
H       2.42010000      5.81704600     43.58646500
S      -1.06339200     -0.02282500     43.55193200
   4
   -0.59313299
H      -0.64339500     -1.00387300     44.36776800
H       2.17403400      6.40710600     44.04282800
H       2.47132800      5.90292700     43.58697300
S      -1.06339200     -0.02282500     43.55193200
   4
   -0.59310310
H      -0.64339500     -1.00387300     44.36776800
H       2.22526200      6.49298600     44.04333600
H       2.52255500      5.98880700     43.58748000
S      -1.06339200     -0.02282500     43.55193200
   4
   -0.59307622
H      -0.64339500     -1.00387300     44.36776800
H       2.27649000      6.57886700     44.04384300
H       2.57378300      6.07468800     43.58798800
S      -1.06339200     -0.02282500     43.55193200
   4
   -0.59305205
H      -0.64339500     -1.00387300     44.36776800
H       2.32771800      6.66474700     44.04435100
H       2.62501100      6.16056800     43.58849600
S      -1.06339200     -0.02282500     43.55193200
   4
   -0.59303032
H      -0.64339500     -1.00387300     44.36776800
H       2.37894500      6.75062800     44.04485900
H       2.67623900      6.24644800     43.58900400
S      -1.06339200     -0.02282500     43.55193200
   4
   -0.59301077
H      -0.64339500     -1.00387300     44.36776800
H       2.43017300      6.83650800     44.04536700
H       2.72746700      6.33232900     43.58951200
S      -1.06339200     -0.02282500     43.55193200
   4
   -0.59299318
H      -0.64339500     -1.00387300     44.36776800
H       2.48140100      6.92238800     44.04587500
H       2.77869500      6.41820900     43.59002000
S      -1.06339200     -0.02282500     43.55193200
   4
   -0.59297736
H      -0.64339500     -1.00387300     44.36776800
H       2.53262900      7.00826900     44.04638300
H       2.82992200      6.50409000     43.59052700
S      -1.06339200     -0.02282500     43.55193200
   4
   -0.59296313
H      -0.64339500     -1.00387300     44.36776800
H       2.58385700      7.09414900     44.04689000
H       2.88115000      6.58997000     43.59103500
S      -1.06339200     -0.02282500     43.55193200
   4
   -0.59295032
H      -0.64339500     -1.00387300     44.36776800
H       2.63508500      7.18003000     44.04739800
H       2.93237800      6.67585100     43.59154300
S      -1.06339200     -0.02282500     43.55193200
   4
   -0.59293880
H      -0.64339500     -1.00387300     44.36776800
H       2.68631200      7.26591000     44.04790600
H       2.98360600      6.76173100     43.59205100
S      -1.06339200     -0.02282500     43.55193200
   4
   -0.59292843
H      -0.64339500     -1.00387300     44.36776800
H       2.73754000      7.35179100     44.04841400
H       3.03483400      6.84761200     43.59255900
S      -1.06339200     -0.02282500     43.55193200
   4
   -0.59291909
H      -0.64339500     -1.00387300     44.36776800
H       2.78876800      7.43767100     44.04892200
H       3.08606200      6.93349200     43.59306700
S      -1.06339200     -0.02282500     43.55193200
   4
   -0.59291069
H      -0.64339500     -1.00387300     44.36776800
H       2.83999600      7.52355200     44.04943000
H       3.13728900      7.01937300     43.59357400
S      -1.06339200     -0.02282500     43.55193200
   4
   -0.59290313
H      -0.64339500     -1.00387300     44.36776800
H       2.89122400      7.60943200     44.04993700
H       3.18851700      7.10525300     43.59408200
S      -1.06339200     -0.02282500     43.55193200
   4
   -0.59289632
H      -0.64339500     -1.00387300     44.36776800
H       2.94245200      7.69531200     44.05044500
H       3.23974500      7.19113300     43.59459000
S      -1.06339200     -0.02282500     43.55193200
   4
   -0.59289020
H      -0.64339500     -1.00387300     44.36776800
H       2.99367900      7.78119300     44.05095300
H       3.29097300      7.27701400     43.59509800
S      -1.06339200     -0.02282500     43.55193200
   4
   -0.59288468
H      -0.64339500     -1.00387300     44.36776800
H       3.04490700      7.86707300     44.05146100
H       3.34220100      7.36289400     43.59560600
S      -1.06339200     -0.02282500     43.55193200
   4
   -0.59287972
H      -0.64339500     -1.00387300     44.36776800
H       3.09613500      7.95295400     44.05196900
H       3.39342800      7.44877500     43.59611400
S      -1.06339200     -0.02282500     43.55193200
   4
   -0.59287525
H      -0.64339500     -1.00387300     44.36776800
H       3.14736300      8.03883400     44.05247700
H       3.44465600      7.53465500     43.59662100
S      -1.06339200     -0.02282500     43.55193200
   4
   -0.59287122
H      -0.64339500     -1.00387300     44.36776800
H       3.19859100      8.12471500     44.05298400
H       3.49588400      7.62053600     43.59712900
S      -1.06339200     -0.02282500     43.55193200
   4
   -0.59286760
H      -0.64339500     -1.00387300     44.36776800
H       3.24981800      8.21059500     44.05349200
H       3.54711200      7.70641600     43.59763700
S      -1.06339200     -0.02282500     43.55193200
   4
   -0.59286434
H      -0.64339500     -1.00387300     44.36776800
H       3.30104600      8.29647600     44.05400000
H       3.59834000      7.79229700     43.59814500
S      -1.06339200     -0.02282500     43.55193200
   4
   -0.59286140
H      -0.64339500     -1.00387300     44.36776800
H       3.35227400      8.38235600     44.05450800
H       3.64956800      7.87817700     43.59865300
S      -1.06339200     -0.02282500     43.55193200
   4
   -0.59285876
H      -0.64339500     -1.00387300     44.36776800
H       3.40350200      8.46823700     44.05501600
H       3.70079500      7.96405800     43.59916100
S      -1.06339200     -0.02282500     43.55193200
   4
   -0.59285638
H      -0.64339500     -1.00387300     44.36776800
H       3.45473000      8.55411700     44.05552400
H       3.75202300      8.04993800     43.59966800
S      -1.06339200     -0.02282500     43.55193200
   4
   -0.59285423
H      -0.64339500     -1.00387300     44.36776800
H       3.50595800      8.63999700     44.05603100
H       3.80325100      8.13581800     43.60017600
S      -1.06339200     -0.02282500     43.55193200
   4
   -0.59285230
H      -0.64339500     -1.00387300     44.36776800
H       3.55718500      8.72587800     44.05653900
H       3.85447900      8.22169900     43.60068400
S      -1.06339200     -0.02282500     43.55193200
   4
   -0.59285057
H      -0.64339500     -1.00387300     44.36776800
H       3.60841300      8.81175800     44.05704700
H       3.90570700      8.30757900     43.60119200
S      -1.06339200     -0.02282500     43.55193200
   4
   -0.59284900
H      -0.64339500     -1.00387300     44.36776800
H       3.65964100      8.89763900     44.05755500
H       3.95693500      8.39346000     43.60170000
S      -1.06339200     -0.02282500     43.55193200
   4
   -0.59284759
H      -0.64339500     -1.00387300     44.36776800
H       3.71086900      8.98351900     44.05806300
H       4.00816200      8.47934000     43.60220800
S      -1.06339200     -0.02282500     43.55193200
   4
   -0.59284633
H      -0.64339500     -1.00387300     44.36776800
H       3.76209700      9.06940000     44.05857100
H       4.05939000      8.56522100     43.60271500
S      -1.06339200     -0.02282500     43.55193200
   4
   -0.59284518
H      -0.64339500     -1.00387300     44.36776800
H       3.81332500      9.15528000     44.05907800
H       4.11061800      8.65110100     43.60322300
S      -1.06339200     -0.02282500     43.55193200
   4
   -0.59284415
H      -0.64339500     -1.00387300     44.36776800
H       3.86455200      9.24116100     44.05958600
H       4.16184600      8.73698200     43.60373100
S      -1.06339200     -0.02282500     43.55193200
   4
   -0.59284323
H      -0.64339500     -1.00387300     44.36776800
H       3.91578000      9.32704100     44.06009400
H       4.21307400      8.82286200     43.60423900
S      -1.06339200     -0.02282500     43.55193200
   4
   -0.59284240
H      -0.64339500     -1.00387300     44.36776800
H       3.96700800      9.41292200     44.06060200
H       4.26430200      8.90874200     43.60474700
S      -1.06339200     -0.02282500     43.55193200
   4
   -0.59284164
H      -0.64339500     -1.00387300     44.36776800
H       4.01823600      9.49880200     44.06111000
H       4.31552900      8.99462300     43.60525500
S      -1.06339200     -0.02282500     43.55193200
   4
   -0.59284097
H      -0.64339500     -1.00387300     44.36776800
H       4.06946400      9.58468200     44.06161800
H       4.36675700      9.08050300     43.60576200
S      -1.06339200     -0.02282500     43.55193200
   4
   -0.59284036
H      -0.64339500     -1.00387300     44.36776800
H       4.12069100      9.67056300     44.06212500
H       4.41798500      9.16638400     43.60627000
S      -1.06339200     -0.02282500     43.55193200
   4
   -0.59283981
H      -0.64339500     -1.00387300     44.36776800
H       4.17191900      9.75644300     44.06263300
H       4.46921300      9.25226400     43.60677800
S      -1.06339200     -0.02282500     43.55193200
   4
   -0.59283932
H      -0.64339500     -1.00387300     44.36776800
H       4.22314700      9.84232400     44.06314100
H       4.52044100      9.33814500     43.60728600
S      -1.06339200     -0.02282500     43.55193200
   4
   -0.59283887
H      -0.64339500     -1.00387300     44.36776800
H       4.27437500      9.92820400     44.06364900
H       4.57166800      9.42402500     43.60779400
S      -1.06339200     -0.02282500     43.55193200
   4
   -0.59283847
H      -0.64339500     -1.00387300     44.36776800
H       4.32560300     10.01408500     44.06415700
H       4.62289600      9.50990600     43.60830200
S      -1.06339200     -0.02282500     43.55193200
   4
   -0.59283811
H      -0.64339500     -1.00387300     44.36776800
H       4.37683100     10.09996500     44.06466500
H       4.67412400      9.59578600     43.60880900
S      -1.06339200     -0.02282500     43.55193200
   4
   -0.59283779
H      -0.64339500     -1.00387300     44.36776800
H       4.42805800     10.18584600     44.06517200
H       4.72535200      9.68166700     43.60931700
S      -1.06339200     -0.02282500     43.55193200
   4
   -0.59283750
H      -0.64339500     -1.00387300     44.36776800
H       4.47928600     10.27172600     44.06568000
H       4.77658000      9.76754700     43.60982500
S      -1.06339200     -0.02282500     43.55193200
   4
   -0.59283723
H      -0.64339500     -1.00387300     44.36776800
H       4.53051400     10.35760700     44.06618800
H       4.82780800      9.85342700     43.61033300
S      -1.06339200     -0.02282500     43.55193200
   4
   -0.59283699
H      -0.64339500     -1.00387300     44.36776800
H       4.58174200     10.44348700     44.06669600
H       4.87903500      9.93930800     43.61084100
S      -1.06339200     -0.02282500     43.55193200
   4
   -0.59283678
H      -0.64339500     -1.00387300     44.36776800
H       4.63297000     10.52936700     44.06720400
H       4.93026300     10.02518800     43.61134900
S      -1.06339200     -0.02282500     43.55193200
   4
   -0.59283659
H      -0.64339500     -1.00387300     44.36776800
H       4.68419800     10.61524800     44.06771200
H       4.98149100     10.11106900     43.61185700
S      -1.06339200     -0.02282500     43.55193200
   4
   -0.59283642
H      -0.64339500     -1.00387300     44.36776800
H       4.73542500     10.70112800     44.06821900
H       5.03271900     10.19694900     43.61236400
S      -1.06339200     -0.02282500     43.55193200
   4
   -0.59283626
H      -0.64339500     -1.00387300     44.36776800
H       4.78665300     10.78700900     44.06872700
H       5.08394700     10.28283000     43.61287200
S      -1.06339200     -0.02282500     43.55193200
   4
   -0.59283612
H      -0.64339500     -1.00387300     44.36776800
H       4.83788100     10.87288900     44.06923500
H       5.13517500     10.36871000     43.61338000
S      -1.06339200     -0.02282500     43.55193200
   4
   -0.59283599
H      -0.64339500     -1.00387300     44.36776800
H       4.88910900     10.95877000     44.06974300
H       5.18640200     10.45459100     43.61388800
S      -1.06339200     -0.02282500     43.55193200
   4
   -0.59283588
H      -0.64339500     -1.00387300     44.36776800
H       4.94033700     11.04465000     44.07025100
H       5.23763000     10.54047100     43.61439600
S      -1.06339200     -0.02282500     43.55193200
   4
   -0.59283578
H      -0.64339500     -1.00387300     44.36776800
H       4.99156500     11.13053100     44.07075900
H       5.28885800     10.62635200     43.61490400
S      -1.06339200     -0.02282500     43.55193200
   4
   -0.59283569
H      -0.64339500     -1.00387300     44.36776800
H       5.04279200     11.21641100     44.07126600
H       5.34008600     10.71223200     43.61541100
S      -1.06339200     -0.02282500     43.55193200
   4
   -0.59283560
H      -0.64339500     -1.00387300     44.36776800
H       5.09402000     11.30229100     44.07177400
H       5.39131400     10.79811200     43.61591900
S      -1.06339200     -0.02282500     43.55193200
   4
   -0.59283553
H      -0.64339500     -1.00387300     44.36776800
H       5.14524800     11.38817200     44.07228200
H       5.44254100     10.88399300     43.61642700
S      -1.06339200     -0.02282500     43.55193200
   4
   -0.59283546
H      -0.64339500     -1.00387300     44.36776800
H       5.19647600     11.47405200     44.07279000
H       5.49376900     10.96987300     43.61693500
S      -1.06339200     -0.02282500     43.55193200
   4
   -0.59283540
H      -0.64339500     -1.00387300     44.36776800
H       5.24770400     11.55993300     44.07329800
H       5.54499700     11.05575400     43.61744300
S      -1.06339200     -0.02282500     43.55193200
   4
   -0.59283535
H      -0.64339500     -1.00387300     44.36776800
H       5.29893100     11.64581300     44.07380600
H       5.59622500     11.14163400     43.61795100
S      -1.06339200     -0.02282500     43.55193200
   4
   -0.59283530
H      -0.64339500     -1.00387300     44.36776800
H       5.35015900     11.73169400     44.07431300
H       5.64745300     11.22751500     43.61845800
S      -1.06339200     -0.02282500     43.55193200
   4
   -0.59283525
H      -0.64339500     -1.00387300     44.36776800
H       5.40138700     11.81757400     44.07482100
H       5.69868100     11.31339500     43.61896600
S      -1.06339200     -0.02282500     43.55193200
   4
   -0.59283521
H      -0.64339500     -1.00387300     44.36776800
H       5.45261500     11.90345500     44.07532900
H       5.74990800     11.39927600     43.61947400
S      -1.06339200     -0.02282500     43.55193200
   4
   -0.59283518
H      -0.64339500     -1.00387300     44.36776800
H       5.50384300     11.98933500     44.07583700
H       5.80113600     11.48515600     43.61998200
S      -1.06339200     -0.02282500     43.55193200
   4
   -0.59283515
H      -0.64339500     -1.00387300     44.36776800
H       5.55507100     12.07521600     44.07634500
H       5.85236400     11.57103600     43.62049000
S      -1.06339200     -0.02282500     43.55193200
   4
   -0.59283512
H      -0.64339500     -1.00387300     44.36776800
H       5.60629800     12.16109600     44.07685300
H       5.90359200     11.65691700     43.62099800
S      -1.06339200     -0.02282500     43.55193200
   4
   -0.59283509
H      -0.64339500     -1.00387300     44.36776800
H       5.65752600     12.24697600     44.07736000
H       5.95482000     11.74279700     43.62150500
S      -1.06339200     -0.02282500     43.55193200
   4
   -0.59283507
H      -0.64339500     -1.00387300     44.36776800
H       5.70875400     12.33285700     44.07786800
H       6.00604800     11.82867800     43.62201300
S      -1.06339200     -0.02282500     43.55193200
   4
   -0.59283504
H      -0.64339500     -1.00387300     44.36776800
H       5.75998200     12.41873700     44.07837600
H       6.05727500     11.91455800     43.62252100
S      -1.06339200     -0.02282500     43.55193200
   4
   -0.59283502
H      -0.64339500     -1.00387300     44.36776800
H       5.81121000     12.50461800     44.07888400
H       6.10850300     12.00043900     43.62302900
S      -1.06339200     -0.02282500     43.55193200
   4
   -0.59283501
H      -0.64339500     -1.00387300     44.36776800
H       5.86243800     12.59049800     44.07939200
H       6.15973100     12.08631900     43.62353700
S      -1.06339200     -0.02282500     43.55193200
   4
   -0.59283499
H      -0.64339500     -1.00387300     44.36776800
H       5.91366500     12.67637900     44.07990000
H       6.21095900     12.17220000     43.62404500
S      -1.06339200     -0.02282500     43.55193200
   4
   -0.59283498
H      -0.64339500     -1.00387300     44.36776800
H       5.96489300     12.76225900     44.08040700
H       6.26218700     12.25808000     43.62455200
S      -1.06339200     -0.02282500     43.55193200
   4
   -0.59283497
H      -0.64339500     -1.00387300     44.36776800
H       6.01612100     12.84814000     44.08091500
H       6.31341500     12.34396100     43.62506000
S      -1.06339200     -0.02282500     43.55193200
   4
   -0.59283495
H      -0.64339500     -1.00387300     44.36776800
H       6.06734900     12.93402000     44.08142300
H       6.36464200     12.42984100     43.62556800
S      -1.06339200     -0.02282500     43.55193200
   4
   -0.59283495
H      -0.64339500     -1.00387300     44.36776800
H       6.11857700     13.01990100     44.08193100
H       6.41587000     12.51572100     43.62607600
S      -1.06339200     -0.02282500     43.55193200
   4
   -0.59283494
H      -0.64339500     -1.00387300     44.36776800
H       6.16980400     13.10578100     44.08243900
H       6.46709800     12.60160200     43.62658400
S      -1.06339200     -0.02282500     43.55193200
   4
   -0.59283493
H      -0.64339500     -1.00387300     44.36776800
H       6.22103200     13.19166100     44.08294700
H       6.51832600     12.68748200     43.62709200
S      -1.06339200     -0.02282500     43.55193200
   4
   -0.59283492
H      -0.64339500     -1.00387300     44.36776800
H       6.27226000     13.27754200     44.08345400
H       6.56955400     12.77336300     43.62759900
S      -1.06339200     -0.02282500     43.55193200
   4
   -0.59283491
H      -0.64339500     -1.00387300     44.36776800
H       6.32348800     13.36342200     44.08396200
H       6.62078100     12.85924300     43.62810700
S      -1.06339200     -0.02282500     43.55193200
   4
   -0.59283491
H      -0.64339500     -1.00387300     44.36776800
H       6.37471600     13.44930300     44.08447000
H       6.67200900     12.94512400     43.62861500
S      -1.06339200     -0.02282500     43.55193200
   4
   -0.59283490
H      -0.64339500     -1.00387300     44.36776800
H       6.42594400     13.53518300     44.08497800
H       6.72323700     13.03100400     43.62912300
S      -1.06339200     -0.02282500     43.55193200
   4
   -0.59283490
H      -0.64339500     -1.00387300     44.36776800
H       6.47717100     13.62106400     44.08548600
H       6.77446500     13.11688500     43.62963100
S      -1.06339200     -0.02282500     43.55193200
   4
   -0.59283489
H      -0.64339500     -1.00387300     44.36776800
H       6.52839900     13.70694400     44.08599400
H       6.82569300     13.20276500     43.63013900
S      -1.06339200     -0.02282500     43.55193200
   4
   -0.59283489
H      -0.64339500     -1.00387300     44.36776800
H       6.57962700     13.79282500     44.08650100
H       6.87692100     13.28864600     43.63064600
S      -1.06339200     -0.02282500     43.55193200
   4
   -0.59283488
H      -0.64339500     -1.00387300     44.36776800
H       6.63085500     13.87870500     44.08700900
H       6.92814800     13.37452600     43.63115400
S      -1.06339200     -0.02282500     43.55193200
   4
   -0.59283488
H      -0.64339500     -1.00387300     44.36776800
H       6.68208300     13.96458600     44.08751700
H       6.97937600     13.46040600     43.63166200
S      -1.06339200     -0.02282500     43.55193200
   4
   -0.59283488
H      -0.64339500     -1.00387300     44.36776800
H       6.73331100     14.05046600     44.08802500
H       7.03060400     13.54628700     43.63217000
S      -1.06339200     -0.02282500     43.55193200
   4
   -0.59283488
H      -0.64339500     -1.00387300     44.36776800
H       6.78453800     14.13634600     44.08853300
H       7.08183200     13.63216700     43.63267800
S      -1.06339200     -0.02282500     43.55193200
   4
   -0.59283487
H      -0.64339500     -1.00387300     44.36776800
H       6.83576600     14.22222700     44.08904100
H       7.13306000     13.71804800     43.63318600
S      -1.06339200     -0.02282500     43.55193200
   4
   -0.59283487
H      -0.64339500     -1.00387300     44.36776800
H       6.88699400     14.30810700     44.08954800
H       7.18428800     13.80392800     43.63369300
S      -1.06339200     -0.02282500     43.55193200
   4
   -0.59283487
H      -0.64339500     -1.00387300     44.36776800
H       6.93822200     14.39398800     44.09005600
H       7.23551500     13.88980900     43.63420100
S      -1.06339200     -0.02282500     43.55193200
   4
   -0.59283487
H      -0.64339500     -1.00387300     44.36776800
H       6.98945000     14.47986800     44.09056400
H       7.28674300     13.97568900     43.63470900
S      -1.06339200     -0.02282500     43.55193200
   4
   -0.59283487
H      -0.64339500     -1.00387300     44.36776800
H       7.04067800     14.56574900     44.09107200
H       7.33797100     14.06157000     43.63521700
S      -1.06339200     -0.02282500     43.55193200
   4
   -0.59283487
H      -0.64339500     -1.00387300     44.36776800
H       7.09190500     14.65162900     44.09158000
H       7.38919900     14.14745000     43.63572500
S      -1.06339200     -0.02282500     43.55193200
   4
   -0.59283486
H      -0.64339500     -1.00387300     44.36776800
H       7.14313300     14.73751000     44.09208800
H       7.44042700     14.23333100     43.63623300
S      -1.06339200     -0.02282500     43.55193200
   4
   -0.59283486
H      -0.64339500     -1.00387300     44.36776800
H       7.19436100     14.82339000     44.09259500
H       7.49165400     14.31921100     43.63674000
S      -1.06339200     -0.02282500     43.55193200
   4
   -0.59283486
H      -0.64339500     -1.00387300     44.36776800
H       7.24558900     14.90927000     44.09310300
H       7.54288200     14.40509100     43.63724800
S      -1.06339200     -0.02282500     43.55193200
   4
   -0.59283486
H      -0.64339500     -1.00387300     44.36776800
H       7.29681700     14.99515100     44.09361100
H       7.59411000     14.49097200     43.63775600
S      -1.06339200     -0.02282500     43.55193200
   4
   -0.59283486
H      -0.64339500     -1.00387300     44.36776800
H       7.34804400     15.08103100     44.09411900
H       7.64533800     14.57685200     43.63826400
S      -1.06339200     -0.02282500     43.55193200
   4
   -0.59283486
H      -0.64339500     -1.00387300     44.36776800
H       7.39927200     15.16691200     44.09462700
H       7.69656600     14.66273300     43.63877200
S      -1.06339200     -0.02282500     43.55193200
   4
   -0.59283486
H      -0.64339500     -1.00387300     44.36776800
H       7.45050000     15.25279200     44.09513500
H       7.74779400     14.74861300     43.63928000
S      -1.06339200     -0.02282500     43.55193200
   4
   -0.59283486
H      -0.64339500     -1.00387300     44.36776800
H       7.50172800     15.33867300     44.09564200
H       7.79902100     14.83449400     43.63978700
S      -1.06339200     -0.02282500     43.55193200
   4
   -0.59283486
H      -0.64339500     -1.00387300     44.36776800
H       7.55295600     15.42455300     44.09615000
H       7.85024900     14.92037400     43.64029500
S      -1.06339200     -0.02282500     43.55193200
   4
   -0.59283486
H      -0.64339500     -1.00387300     44.36776800
H       7.60418400     15.51043400     44.09665800
H       7.90147700     15.00625500     43.64080300
S      -1.06339200     -0.02282500     43.55193200
   4
   -0.59283486
H      -0.64339500     -1.00387300     44.36776800
H       7.65541100     15.59631400     44.09716600
H       7.95270500     15.09213500     43.64131100
S      -1.06339200     -0.02282500     43.55193200
   4
   -0.59283486
H      -0.64339500     -1.00387300     44.36776800
H       7.70663900     15.68219500     44.09767400
H       8.00393300     15.17801500     43.64181900
S      -1.06339200     -0.02282500     43.55193200
   4
   -0.59283486
H      -0.64339500     -1.00387300     44.36776800
H       7.75786700     15.76807500     44.09818200
H       8.05516100     15.26389600     43.64232700
S      -1.06339200     -0.02282500     43.55193200
   4
   -0.59283486
H      -0.64339500     -1.00387300     44.36776800
H       7.80909500     15.85395500     44.09869000
H       8.10638800     15.34977600     43.64283400
S      -1.06339200     -0.02282500     43.55193200
   4
   -0.59283485
H      -0.64339500     -1.00387300     44.36776800
H       7.86032300     15.93983600     44.09919700
H       8.15761600     15.43565700     43.64334200
S      -1.06339200     -0.02282500     43.55193200
   4
   -0.59283485
H      -0.64339500     -1.00387300     44.36776800
H       7.91155100     16.02571600     44.09970500
H       8.20884400     15.52153700     43.64385000
S      -1.06339200     -0.02282500     43.55193200
   4
   -0.59283485
H      -0.64339500     -1.00387300     44.36776800
H       7.96277800     16.11159700     44.10021300
H       8.26007200     15.60741800     43.64435800
S      -1.06339200     -0.02282500     43.55193200
   4
   -0.59283485
H      -0.64339500     -1.00387300     44.36776800
H       8.01400600     16.19747700     44.10072100
H       8.31130000     15.69329800     43.64486600
S      -1.06339200     -0.02282500     43.55193200
   4
   -0.59283485
H      -0.64339500     -1.00387300     44.36776800
H       8.06523400     16.28335800     44.10122900
H       8.36252800     15.77917900     43.64537400
S      -1.06339200     -0.02282500     43.55193200
   4
   -0.59283485
H      -0.64339500     -1.00387300     44.36776800
H       8.11646200     16.36923800     44.10173700
H       8.41375500     15.86505900     43.64588100
S      -1.06339200     -0.02282500     43.55193200
   4
   -0.59283485
H      -0.64339500     -1.00387300     44.36776800
H       8.16769000     16.45511900     44.10224400
H       8.46498300     15.95094000     43.64638900
S      -1.06339200     -0.02282500     43.55193200
   4
   -0.59283485
H      -0.64339500     -1.00387300     44.36776800
H       8.21891700     16.54099900     44.10275200
H       8.51621100     16.03682000     43.64689700
S      -1.06339200     -0.02282500     43.55193200
   4
   -0.59283486
H      -0.64339500     -1.00387300     44.36776800
H       8.27014500     16.62688000     44.10326000
H       8.56743900     16.12270000     43.64740500
S      -1.06339200     -0.02282500     43.55193200
   4
   -0.59283485
H      -0.64339500     -1.00387300     44.36776800
H       8.32137300     16.71276000     44.10376800
H       8.61866700     16.20858100     43.64791300
S      -1.06339200     -0.02282500     43.55193200
   4
   -0.59283485
H      -0.64339500     -1.00387300     44.36776800
H       8.37260100     16.79864000     44.10427600
H       8.66989400     16.29446100     43.64842100
S      -1.06339200     -0.02282500     43.55193200
   4
   -0.59283485
H      -0.64339500     -1.00387300     44.36776800
H       8.42382900     16.88452100     44.10478400
H       8.72112200     16.38034200     43.64892800
S      -1.06339200     -0.02282500     43.55193200
   4
   -0.59283485
H      -0.64339500     -1.00387300     44.36776800
H       8.47505700     16.97040100     44.10529100
H       8.77235000     16.46622200     43.64943600
S      -1.06339200     -0.02282500     43.55193200
   4
   -0.59283485
H      -0.64339500     -1.00387300     44.36776800
H       8.52628400     17.05628200     44.10579900
H       8.82357800     16.55210300     43.64994400
S      -1.06339200     -0.02282500     43.55193200
   4
   -0.59283485
H      -0.64339500     -1.00387300     44.36776800
H       8.57751200     17.14216200     44.10630700
H       8.87480600     16.63798300     43.65045200
S      -1.06339200     -0.02282500     43.55193200
   4
   -0.59283485
H      -0.64339500     -1.00387300     44.36776800
H       8.62874000     17.22804300     44.10681500
H       8.92603400     16.72386400     43.65096000
S      -1.06339200     -0.02282500     43.55193200
   4
   -0.59283485
H      -0.64339500     -1.00387300     44.36776800
H       8.67996800     17.31392300     44.10732300
H       8.97726100     16.80974400     43.65146800
S      -1.06339200     -0.02282500     43.55193200
   4
   -0.59283485
H      -0.64339500     -1.00387300     44.36776800
H       8.73119600     17.39980400     44.10783100
H       9.02848900     16.89562500     43.65197500
S      -1.06339200     -0.02282500     43.55193200
   4
   -0.59283485
H      -0.64339500     -1.00387300     44.36776800
H       8.78242400     17.48568400     44.10833800
H       9.07971700     16.98150500     43.65248300
S      -1.06339200     -0.02282500     43.55193200
   4
   -0.59283485
H      -0.64339500     -1.00387300     44.36776800
H       8.83365100     17.57156400     44.10884600
H       9.13094500     17.06738500     43.65299100
S      -1.06339200     -0.02282500     43.55193200
   4
   -0.59283485
H      -0.64339500     -1.00387300     44.36776800
H       8.88487900     17.65744500     44.10935400
H       9.18217300     17.15326600     43.65349900
S      -1.06339200     -0.02282500     43.55193200
   4
   -0.59283485
H      -0.64339500     -1.00387300     44.36776800
H       8.93610700     17.74332500     44.10986200
H       9.23340100     17.23914600     43.65400700
S      -1.06339200     -0.02282500     43.55193200
   4
   -0.59283485
H      -0.64339500     -1.00387300     44.36776800
H       8.98733500     17.82920600     44.11037000
H       9.28462800     17.32502700     43.65451500
S      -1.06339200     -0.02282500     43.55193200
   4
   -0.59283485
H      -0.64339500     -1.00387300     44.36776800
H       9.03856300     17.91508600     44.11087800
H       9.33585600     17.41090700     43.65502200
S      -1.06339200     -0.02282500     43.55193200
   4
   -0.59283485
H      -0.64339500     -1.00387300     44.36776800
H       9.08979100     18.00096700     44.11138500
H       9.38708400     17.49678800     43.65553000
S      -1.06339200     -0.02282500     43.55193200
   4
   -0.59283485
H      -0.64339500     -1.00387300     44.36776800
H       9.14101800     18.08684700     44.11189300
H       9.43831200     17.58266800     43.65603800
S      -1.06339200     -0.02282500     43.55193200
   4
   -0.59283485
H      -0.64339500     -1.00387300     44.36776800
H       9.19224600     18.17272800     44.11240100
H       9.48954000     17.66854900     43.65654600
S      -1.06339200     -0.02282500     43.55193200
   4
   -0.59283485
H      -0.64339500     -1.00387300     44.36776800
H       9.24347400     18.25860800     44.11290900
H       9.54076700     17.75442900     43.65705400
S      -1.06339200     -0.02282500     43.55193200
   4
   -0.59283485
H      -0.64339500     -1.00387300     44.36776800
H       9.29470200     18.34448900     44.11341700
H       9.59199500     17.84030900     43.65756200
S      -1.06339200     -0.02282500     43.55193200
   4
   -0.59283485
H      -0.64339500     -1.00387300     44.36776800
H       9.34593000     18.43036900     44.11392500
H       9.64322300     17.92619000     43.65806900
S      -1.06339200     -0.02282500     43.55193200
   4
   -0.59283485
H      -0.64339500     -1.00387300     44.36776800
H       9.39715700     18.51624900     44.11443200
H       9.69445100     18.01207000     43.65857700
S      -1.06339200     -0.02282500     43.55193200
   4
   -0.59283485
H      -0.64339500     -1.00387300     44.36776800
H       9.44838500     18.60213000     44.11494000
H       9.74567900     18.09795100     43.65908500
S      -1.06339200     -0.02282500     43.55193200
   4
   -0.59283485
H      -0.64339500     -1.00387300     44.36776800
H       9.49961300     18.68801000     44.11544800
H       9.79690700     18.18383100     43.65959300
S      -1.06339200     -0.02282500     43.55193200
   4
   -0.59283485
H      -0.64339500     -1.00387300     44.36776800
H       9.55084100     18.77389100     44.11595600
H       9.84813400     18.26971200     43.66010100
S      -1.06339200     -0.02282500     43.55193200
   4
   -0.59283485
H      -0.64339500     -1.00387300     44.36776800
H       9.60206900     18.85977100     44.11646400
H       9.89936200     18.35559200     43.66060900
S      -1.06339200     -0.02282500     43.55193200
   4
   -0.59283485
H      -0.64339500     -1.00387300     44.36776800
H       9.65329700     18.94565200     44.11697200
H       9.95059000     18.44147300     43.66111600
S      -1.06339200     -0.02282500     43.55193200
   4
   -0.59283485
H      -0.64339500     -1.00387300     44.36776800
H       9.70452400     19.03153200     44.11747900
H      10.00181800     18.52735300     43.66162400
S      -1.06339200     -0.02282500     43.55193200
   4
   -0.59283485
H      -0.64339500     -1.00387300     44.36776800
H       9.75575200     19.11741300     44.11798700
H      10.05304600     18.61323400     43.66213200
S      -1.06339200     -0.02282500     43.55193200
   4
   -0.59283485
H      -0.64339500     -1.00387300     44.36776800
H       9.80698000     19.20329300     44.11849500
H      10.10427400     18.69911400     43.66264000
S      -1.06339200     -0.02282500     43.55193200
   4
   -0.59283485
H      -0.64339500     -1.00387300     44.36776800
H       9.85820800     19.28917400     44.11900300
H      10.15550100     18.78499400     43.66314800
S      -1.06339200     -0.02282500     43.55193200
   4
   -0.59283485
H      -0.64339500     -1.00387300     44.36776800
H       9.90943600     19.37505400     44.11951100
H      10.20672900     18.87087500     43.66365600
S      -1.06339200     -0.02282500     43.55193200
   4
   -0.59283485
H      -0.64339500     -1.00387300     44.36776800
H       9.96066400     19.46093400     44.12001900
H      10.25795700     18.95675500     43.66416300
S      -1.06339200     -0.02282500     43.55193200
   4
   -0.59283485
H      -0.64339500     -1.00387300     44.36776800
H      10.01189100     19.54681500     44.12052600
H      10.30918500     19.04263600     43.66467100
S      -1.06339200     -0.02282500     43.55193200
   4
   -0.59283485
H      -0.64339500     -1.00387300     44.36776800
H      10.06311900     19.63269500     44.12103400
H      10.36041300     19.12851600     43.66517900
S      -1.06339200     -0.02282500     43.55193200
   4
   -0.59283485
H      -0.64339500     -1.00387300     44.36776800
H      10.11434700     19.71857600     44.12154200
H      10.41164100     19.21439700     43.66568700
S      -1.06339200     -0.02282500     43.55193200
   4
   -0.59283485
H      -0.64339500     -1.00387300     44.36776800
H      10.16557500     19.80445600     44.12205000
H      10.46286800     19.30027700     43.66619500
S      -1.06339200     -0.02282500     43.55193200
   4
   -0.59283485
H      -0.64339500     -1.00387300     44.36776800
H      10.21680300     19.89033700     44.12255800
H      10.51409600     19.38615800     43.66670300
S      -1.06339200     -0.02282500     43.55193200
   4
   -0.59283485
H      -0.64339500     -1.00387300     44.36776800
H      10.26803000     19.97621700     44.12306600
H      10.56532400     19.47203800     43.66721000
S      -1.06339200     -0.02282500     43.55193200
   4
   -0.59283485
H      -0.64339500     -1.00387300     44.36776800
H      10.31925800     20.06209800     44.12357300
H      10.61655200     19.55791900     43.66771800
S      -1.06339200     -0.02282500     43.55193200
   4
   -0.59283485
H      -0.64339500     -1.00387300     44.36776800
H      10.37048600     20.14797800     44.12408100
H      10.66778000     19.64379900     43.66822600
S      -1.06339200     -0.02282500     43.55193200
   4
   -0.59283485
H      -0.64339500     -1.00387300     44.36776800
H      10.42171400     20.23385900     44.12458900
H      10.71900700     19.72967900     43.66873400
S      -1.06339200     -0.02282500     43.55193200
   4
   -0.59283485
H      -0.64339500     -1.00387300     44.36776800
H      10.47294200     20.31973900     44.12509700
H      10.77023500     19.81556000     43.66924200
S      -1.06339200     -0.02282500     43.55193200
   4
   -0.59283485
H      -0.64339500     -1.00387300     44.36776800
H      10.52417000     20.40561900     44.12560500
H      10.82146300     19.90144000     43.66975000
S      -1.06339200     -0.02282500     43.55193200
   4
   -0.59283485
H      -0.64339500     -1.00387300     44.36776800
H      10.57539700     20.49150000     44.12611300
H      10.87269100     19.98732100     43.67025700
S      -1.06339200     -0.02282500     43.55193200
   4
   -0.59283485
H      -0.64339500     -1.00387300     44.36776800
H      10.62662500     20.57738000     44.12662000
H      10.92391900     20.07320100     43.67076500
S      -1.06339200     -0.02282500     43.55193200
   4
   -0.59283485
H      -0.64339500     -1.00387300     44.36776800
H      10.67785300     20.66326100     44.12712800
H      10.97514700     20.15908200     43.67127300
S      -1.06339200     -0.02282500     43.55193200
   4
   -0.59283485
H      -0.64339500     -1.00387300     44.36776800
H      10.72908100     20.74914100     44.12763600
H      11.02637400     20.24496200     43.67178100
S      -1.06339200     -0.02282500     43.55193200
   4
   -0.59283485
H      -0.64339500     -1.00387300     44.36776800
H      10.78030900     20.83502200     44.12814400
H      11.07760200     20.33084300     43.67228900
S      -1.06339200     -0.02282500     43.55193200
   4
   -0.59283485
H      -0.64339500     -1.00387300     44.36776800
H      10.83153700     20.92090200     44.12865200
H      11.12883000     20.41672300     43.67279700
S      -1.06339200     -0.02282500     43.55193200
   4
   -0.59283485
H      -0.64339500     -1.00387300     44.36776800
H      10.88276400     21.00678300     44.12916000
H      11.18005800     20.50260400     43.67330400
S      -1.06339200     -0.02282500     43.55193200
   4
   -0.59283485
H      -0.64339500     -1.00387300     44.36776800
H      10.93399200     21.09266300     44.12966700
H      11.23128600     20.58848400     43.67381200
S      -1.06339200     -0.02282500     43.55193200
   4
   -0.59283485
H      -0.64339500     -1.00387300     44.36776800
H      10.98522000     21.17854300     44.13017500
H      11.28251400     20.67436400     43.67432000
S      -1.06339200     -0.02282500     43.55193200
   4
   -0.59283485
H      -0.64339500     -1.00387300     44.36776800
H      11.03644800     21.26442400     44.13068300
H      11.33374100     20.76024500     43.67482800
S      -1.06339200     -0.02282500     43.55193200
   4
   -0.59283485
H      -0.64339500     -1.00387300     44.36776800
H      11.08767600     21.35030400     44.13119100
H      11.38496900     20.84612500     43.67533600
S      -1.06339200     -0.02282500     43.55193200
   4
   -0.59283485
H      -0.64339500     -1.00387300     44.36776800
H      11.13890400     21.43618500     44.13169900
H      11.43619700     20.93200600     43.67584400
S      -1.06339200     -0.02282500     43.55193200
   4
   -0.59283485
H      -0.64339500     -1.00387300     44.36776800
H      11.19013100     21.52206500     44.13220700
H      11.48742500     21.01788600     43.67635100
S      -1.06339200     -0.02282500     43.55193200
   4
   -0.59283485
H      -0.64339500     -1.00387300     44.36776800
H      11.24135900     21.60794600     44.13271400
H      11.53865300     21.10376700     43.67685900
S      -1.06339200     -0.02282500     43.55193200
   4
   -0.59283485
H      -0.64339500     -1.00387300     44.36776800
H      11.29258700     21.69382600     44.13322200
H      11.58988000     21.18964700     43.67736700
S      -1.06339200     -0.02282500     43.55193200
   4
   -0.59283485
H      -0.64339500     -1.00387300     44.36776800
H      11.34381500     21.77970700     44.13373000
H      11.64110800     21.27552800     43.67787500
S      -1.06339200     -0.02282500     43.55193200
   4
   -0.59283485
H      -0.64339500     -1.00387300     44.36776800
H      11.39504300     21.86558700     44.13423800
H      11.69233600     21.36140800     43.67838300
S      -1.06339200     -0.02282500     43.55193200
   4
   -0.59283485
H      -0.64339500     -1.00387300     44.36776800
H      11.44627000     21.95146800     44.13474600
H      11.74356400     21.44728800     43.67889100
S      -1.06339200     -0.02282500     43.55193200
   4
   -0.59283485
H      -0.64339500     -1.00387300     44.36776800
H      11.49749800     22.03734800     44.13525400
H      11.79479200     21.53316900     43.67939800
S      -1.06339200     -0.02282500     43.55193200
   4
   -0.59283485
H      -0.64339500     -1.00387300     44.36776800
H      11.54872600     22.12322800     44.13576100
H      11.84602000     21.61904900     43.67990600
S      -1.06339200     -0.02282500     43.55193200
   4
   -0.59283485
H      -0.64339500     -1.00387300     44.36776800
H      11.59995400     22.20910900     44.13626900
H      11.89724700     21.70493000     43.68041400
S      -1.06339200     -0.02282500     43.55193200
   4
   -0.59283485
H      -0.64339500     -1.00387300     44.36776800
H      11.65118200     22.29498900     44.13677700
H      11.94847500     21.79081000     43.68092200
S      -1.06339200     -0.02282500     43.55193200
   4
   -0.59283485
H      -0.64339500     -1.00387300     44.36776800
H      11.70241000     22.38087000     44.13728500
H      11.99970300     21.87669100     43.68143000
S      -1.06339200     -0.02282500     43.55193200
   4
   -0.59283485
H      -0.64339500     -1.00387300     44.36776800
H      11.75363700     22.46675000     44.13779300
H      12.05093100     21.96257100     43.68193800
S      -1.06339200     -0.02282500     43.55193200
   4
   -0.59283485
H      -0.64339500     -1.00387300     44.36776800
H      11.80486500     22.55263100     44.13830100
H      12.10215900     22.04845200     43.68244500
S      -1.06339200     -0.02282500     43.55193200
   4
   -0.59283485
H      -0.64339500     -1.00387300     44.36776800
H      11.85609300     22.63851100     44.13880800
H      12.15338700     22.13433200     43.68295300
S      -1.06339200     -0.02282500     43.55193200
   4
   -0.59283485
H      -0.64339500     -1.00387300     44.36776800
H      11.90732100     22.72439200     44.13931600
H      12.20461400     22.22021300     43.68346100
S      -1.06339200     -0.02282500     43.55193200
   4
   -0.59283485
H      -0.64339500     -1.00387300     44.36776800
H      11.95854900     22.81027200     44.13982400
H      12.25584200     22.30609300     43.68396900
S      -1.06339200     -0.02282500     43.55193200
   4
   -0.59283485
H      -0.64339500     -1.00387300     44.36776800
H      12.00977700     22.89615300     44.14033200
H      12.30707000     22.39197300     43.68447700
S      -1.06339200     -0.02282500     43.55193200
   4
   -0.59283485
H      -0.64339500     -1.00387300     44.36776800
H      12.06100400     22.98203300     44.14084000
H      12.35829800     22.47785400     43.68498500
S      -1.06339200     -0.02282500     43.55193200
   4
   -0.59283485
H      -0.64339500     -1.00387300     44.36776800
H      12.11223200     23.06791300     44.14134800
H      12.40952600     22.56373400     43.68549200
S      -1.06339200     -0.02282500     43.55193200
   4
   -0.59283485
H      -0.64339500     -1.00387300     44.36776800
H      12.16346000     23.15379400     44.14185500
H      12.46075400     22.64961500     43.68600000
S      -1.06339200     -0.02282500     43.55193200
   4
   -0.59283485
H      -0.64339500     -1.00387300     44.36776800
H      12.21468800     23.23967400     44.14236300
H      12.51198100     22.73549500     43.68650800
S      -1.06339200     -0.02282500     43.55193200
   4
   -0.59283485
H      -0.64339500     -1.00387300     44.36776800
H      12.26591600     23.32555500     44.14287100
H      12.56320900     22.82137600     43.68701600
S      -1.06339200     -0.02282500     43.55193200
   4
   -0.59283485
H      -0.64339500     -1.00387300     44.36776800
H      12.31714300     23.41143500     44.14337900
H      12.61443700     22.90725600     43.68752400
S      -1.06339200     -0.02282500     43.55193200
   4
   -0.59283485
H      -0.64339500     -1.00387300     44.36776800
H      12.36837100     23.49731600     44.14388700
H      12.66566500     22.99313700     43.68803200
S      -1.06339200     -0.02282500     43.55193200
   4
   -0.59283485
H      -0.64339500     -1.00387300     44.36776800
H      12.41959900     23.58319600     44.14439500
H      12.71689300     23.07901700     43.68854000
S      -1.06339200     -0.02282500     43.55193200
   4
   -0.59283485
H      -0.64339500     -1.00387300     44.36776800
H      12.47082700     23.66907700     44.14490200
H      12.76812000     23.16489800     43.68904700
S      -1.06339200     -0.02282500     43.55193200
   4
   -0.59283485
H      -0.64339500     -1.00387300     44.36776800
H      12.52205500     23.75495700     44.14541000
H      12.81934800     23.25077800     43.68955500
S      -1.06339200     -0.02282500     43.55193200
   4
   -0.59283485
H      -0.64339500     -1.00387300     44.36776800
H      12.57328300     23.84083700     44.14591800
H      12.87057600     23.33665800     43.69006300
S      -1.06339200     -0.02282500     43.55193200
   4
   -0.59283485
H      -0.64339500     -1.00387300     44.36776800
H      12.62451000     23.92671800     44.14642600
H      12.92180400     23.42253900     43.69057100
S      -1.06339200     -0.02282500     43.55193200
   4
   -0.59283485
H      -0.64339500     -1.00387300     44.36776800
H      12.67573800     24.01259800     44.14693400
H      12.97303200     23.50841900     43.69107900
S      -1.06339200     -0.02282500     43.55193200
   4
   -0.59283485
H      -0.64339500     -1.00387300     44.36776800
H      12.72696600     24.09847900     44.14744200
H      13.02426000     23.59430000     43.69158700
S      -1.06339200     -0.02282500     43.55193200
   4
   -0.59283485
H      -0.64339500     -1.00387300     44.36776800
H      12.77819400     24.18435900     44.14794900
H      13.07548700     23.68018000     43.69209400
S      -1.06339200     -0.02282500     43.55193200
   4
   -0.59283485
H      -0.64339500     -1.00387300     44.36776800
H      12.82942200     24.27024000     44.14845700
H      13.12671500     23.76606100     43.69260200
S      -1.06339200     -0.02282500     43.55193200
   4
   -0.59283485
H      -0.64339500     -1.00387300     44.36776800
H      12.88065000     24.35612000     44.14896500
H      13.17794300     23.85194100     43.69311000
S      -1.06339200     -0.02282500     43.55193200
   4
   -0.59283485
H      -0.64339500     -1.00387300     44.36776800
H      12.93187700     24.44200100     44.14947300
H      13.22917100     23.93782200     43.69361800
S      -1.06339200     -0.02282500     43.55193200
   4
   -0.59283485
H      -0.64339500     -1.00387300     44.36776800
H      12.98310500     24.52788100     44.14998100
H      13.28039900     24.02370200     43.69412600
S      -1.06339200     -0.02282500     43.55193200
   4
   -0.59283485
H      -0.64339500     -1.00387300     44.36776800
H      13.03433300     24.61376200     44.15048900
H      13.33162700     24.10958300     43.69463400
S      -1.06339200     -0.02282500     43.55193200
   4
   -0.59283485
H      -0.64339500     -1.00387300     44.36776800
H      13.08556100     24.69964200     44.15099600
H      13.38285400     24.19546300     43.69514100
S      -1.06339200     -0.02282500     43.55193200
   4
   -0.59283485
H      -0.64339500     -1.00387300     44.36776800
H      13.13678900     24.78552200     44.15150400
H      13.43408200     24.28134300     43.69564900
S      -1.06339200     -0.02282500     43.55193200
   4
   -0.59283485
H      -0.64339500     -1.00387300     44.36776800
H      13.18801700     24.87140300     44.15201200
H      13.48531000     24.36722400     43.69615700
S      -1.06339200     -0.02282500     43.55193200
   4
   -0.59283485
H      -0.64339500     -1.00387300     44.36776800
H      13.23924400     24.95728300     44.15252000
H      13.53653800     24.45310400     43.69666500
S      -1.06339200     -0.02282500     43.55193200
   4
   -0.59283485
H      -0.64339500     -1.00387300     44.36776800
H      13.29047200     25.04316400     44.15302800
H      13.58776600     24.53898500     43.69717300
S      -1.06339200     -0.02282500     43.55193200
   4
   -0.59283485
H      -0.64339500     -1.00387300     44.36776800
H      13.34170000     25.12904400     44.15353600
H      13.63899300     24.62486500     43.69768100
S      -1.06339200     -0.02282500     43.55193200
   4
   -0.59283485
H      -0.64339500     -1.00387300     44.36776800
H      13.39292800     25.21492500     44.15404300
H      13.69022100     24.71074600     43.69818800
S      -1.06339200     -0.02282500     43.55193200
   4
   -0.59283485
H      -0.64339500     -1.00387300     44.36776800
H      13.44415600     25.30080500     44.15455100
H      13.74144900     24.79662600     43.69869600
S      -1.06339200     -0.02282500     43.55193200
   4
   -0.59283485
H      -0.64339500     -1.00387300     44.36776800
H      13.49538300     25.38668600     44.15505900
H      13.79267700     24.88250700     43.69920400
S      -1.06339200     -0.02282500     43.55193200
   4
   -0.59283485
H      -0.64339500     -1.00387300     44.36776800
H      13.54661100     25.47256600     44.15556700
H      13.84390500     24.96838700     43.69971200
S      -1.06339200     -0.02282500     43.55193200
   4
   -0.59283485
H      -0.64339500     -1.00387300     44.36776800
H      13.59783900     25.55844700     44.15607500
H      13.89513300     25.05426700     43.70022000
S      -1.06339200     -0.02282500     43.55193200
   4
   -0.59283485
H      -0.64339500     -1.00387300     44.36776800
H      13.64906700     25.64432700     44.15658300
H      13.94636000     25.14014800     43.70072800
S      -1.06339200     -0.02282500     43.55193200
   4
   -0.59283485
H      -0.64339500     -1.00387300     44.36776800
H      13.70029500     25.73020700     44.15709000
H      13.99758800     25.22602800     43.70123500
S      -1.06339200     -0.02282500     43.55193200
   4
   -0.59283485
H      -0.64339500     -1.00387300     44.36776800
H      13.75152300     25.81608800     44.15759800
H      14.04881600     25.31190900     43.70174300
S      -1.06339200     -0.02282500     43.55193200
   4
   -0.59283485
H      -0.64339500     -1.00387300     44.36776800
H      13.80275000     25.90196800     44.15810600
H      14.10004400     25.39778900     43.70225100
S      -1.06339200     -0.02282500     43.55193200
   4
   -0.59283485
H      -0.64339500     -1.00387300     44.36776800
H      13.85397800     25.98784900     44.15861400
H      14.15127200     25.48367000     43.70275900
S      -1.06339200     -0.02282500     43.55193200
   4
   -0.59283485
H      -0.64339500     -1.00387300     44.36776800
H      13.90520600     26.07372900     44.15912200
H      14.20250000     25.56955000     43.70326700
S      -1.06339200     -0.02282500     43.55193200
   4
   -0.59283485
H      -0.64339500     -1.00387300     44.36776800
H      13.95643400     26.15961000     44.15963000
H      14.25372700     25.65543100     43.70377500
S      -1.06339200     -0.02282500     43.55193200
   4
   -0.59283485
H      -0.64339500     -1.00387300     44.36776800
H      14.00766200     26.24549000     44.16013700
H      14.30495500     25.74131100     43.70428200
S      -1.06339200     -0.02282500     43.55193200
   4
   -0.59283485
H      -0.64339500     -1.00387300     44.36776800
H      14.05889000     26.33137100     44.16064500
H      14.35618300     25.82719200     43.70479000
S      -1.06339200     -0.02282500     43.55193200
   4
   -0.59283485
H      -0.64339500     -1.00387300     44.36776800
H      14.11011700     26.41725100     44.16115300
H      14.40741100     25.91307200     43.70529800
S      -1.06339200     -0.02282500     43.55193200
   4
   -0.59283485
H      -0.64339500     -1.00387300     44.36776800
H      14.16134500     26.50313200     44.16166100
H      14.45863900     25.99895200     43.70580600
S      -1.06339200     -0.02282500     43.55193200
   4
   -0.59283485
H      -0.64339500     -1.00387300     44.36776800
H      14.21257300     26.58901200     44.16216900
H      14.50986700     26.08483300     43.70631400
S      -1.06339200     -0.02282500     43.55193200
   4
   -0.59283485
H      -0.64339500     -1.00387300     44.36776800
H      14.26380100     26.67489200     44.16267700
H      14.56109400     26.17071300     43.70682200
S      -1.06339200     -0.02282500     43.55193200
   4
   -0.59283485
H      -0.64339500     -1.00387300     44.36776800
H      14.31502900     26.76077300     44.16318400
H      14.61232200     26.25659400     43.70732900
S      -1.06339200     -0.02282500     43.55193200
   4
   -0.59283485
H      -0.64339500     -1.00387300     44.36776800
H      14.36625600     26.84665300     44.16369200
H      14.66355000     26.34247400     43.70783700
S      -1.06339200     -0.02282500     43.55193200
   4
   -0.59283485
H      -0.64339500     -1.00387300     44.36776800
H      14.41748400     26.93253400     44.16420000
H      14.71477800     26.42835500     43.70834500
S      -1.06339200     -0.02282500     43.55193200
   4
   -0.59283485
H      -0.64339500     -1.00387300     44.36776800
H      14.46871200     27.01841400     44.16470800
H      14.76600600     26.51423500     43.70885300
S      -1.06339200     -0.02282500     43.55193200
   4
   -0.59283485
H      -0.64339500     -1.00387300     44.36776800
H      14.51994000     27.10429500     44.16521600
H      14.81723300     26.60011600     43.70936100
S      -1.06339200     -0.02282500     43.55193200
   4
   -0.59283485
H      -0.64339500     -1.00387300     44.36776800
H      14.57116800     27.19017500     44.16572400
H      14.86846100     26.68599600     43.70986900
S      -1.06339200     -0.02282500     43.55193200
   4
   -0.59283485
H      -0.64339500     -1.00387300     44.36776800
H      14.62239600     27.27605600     44.16623100
H      14.91968900     26.77187700     43.71037600
S      -1.06339200     -0.02282500     43.55193200
   4
   -0.59283485
H      -0.64339500     -1.00387300     44.36776800
H      14.67362300     27.36193600     44.16673900
H      14.97091700     26.85775700     43.71088400
S      -1.06339200     -0.02282500     43.55193200
   4
   -0.59283485
H      -0.64339500     -1.00387300     44.36776800
H      14.72485100     27.44781600     44.16724700
H      15.02214500     26.94363700     43.71139200
S      -1.06339200     -0.02282500     43.55193200
   4
   -0.59283485
H      -0.64339500     -1.00387300     44.36776800
H      14.77607900     27.53369700     44.16775500
H      15.07337300     27.02951800     43.71190000
S      -1.06339200     -0.02282500     43.55193200
   4
   -0.59283485
H      -0.64339500     -1.00387300     44.36776800
H      14.82730700     27.61957700     44.16826300
H      15.12460000     27.11539800     43.71240800
S      -1.06339200     -0.02282500     43.55193200
   4
   -0.59283485
H      -0.64339500     -1.00387300     44.36776800
H      14.87853500     27.70545800     44.16877100
H      15.17582800     27.20127900     43.71291600
S      -1.06339200     -0.02282500     43.55193200
   4
   -0.59283485
H      -0.64339500     -1.00387300     44.36776800
H      14.92976300     27.79133800     44.16927800
H      15.22705600     27.28715900     43.71342300
S      -1.06339200     -0.02282500     43.55193200
   4
   -0.59283485
H      -0.64339500     -1.00387300     44.36776800
H      14.98099000     27.87721900     44.16978600
H      15.27828400     27.37304000     43.71393100
S      -1.06339200     -0.02282500     43.55193200
   4
   -0.59283485
H      -0.64339500     -1.00387300     44.36776800
H      15.03221800     27.96309900     44.17029400
H      15.32951200     27.45892000     43.71443900
S      -1.06339200     -0.02282500     43.55193200
   4
   -0.59283485
H      -0.64339500     -1.00387300     44.36776800
H      15.08344600     28.04898000     44.17080200
H      15.38074000     27.54480100     43.71494700
S      -1.06339200     -0.02282500     43.55193200
   4
   -0.59283485
H      -0.64339500     -1.00387300     44.36776800
H      15.13467400     28.13486000     44.17131000
H      15.43196700     27.63068100     43.71545500
S      -1.06339200     -0.02282500     43.55193200
   4
   -0.59283485
H      -0.64339500     -1.00387300     44.36776800
H      15.18590200     28.22074100     44.17181800
H      15.48319500     27.71656100     43.71596300
S      -1.06339200     -0.02282500     43.55193200
   4
   -0.59283485
H      -0.64339500     -1.00387300     44.36776800
H      15.23712900     28.30662100     44.17232500
H      15.53442300     27.80244200     43.71647000
S      -1.06339200     -0.02282500     43.55193200
   4
   -0.59283485
H      -0.64339500     -1.00387300     44.36776800
H      15.28835700     28.39250100     44.17283300
H      15.58565100     27.88832200     43.71697800
S      -1.06339200     -0.02282500     43.55193200
