   4
    0.15000209
H       0.00000000     -0.75249900      0.39263800
H       0.00000000      1.13212200      0.81260300
H      -0.51594300     -1.86998600      2.33972300
S       0.00000000     -0.01196700      1.50811700
   4
    0.09902347
H       0.00000000     -0.75249900      0.39263800
H       0.00000000      1.13212200      0.81260300
H      -0.55279600     -2.00270200      2.39912400
S       0.00000000     -0.01196700      1.50811700
   4
    0.05937990
H       0.00000000     -0.75249900      0.39263800
H       0.00000000      1.13212200      0.81260300
H      -0.58964900     -2.13541700      2.45852400
S       0.00000000     -0.01196700      1.50811700
   4
    0.03141016
H       0.00000000     -0.75249900      0.39263800
H       0.00000000      1.13212200      0.81260300
H      -0.62650200     -2.26813300      2.51792500
S       0.00000000     -0.01196700      1.50811700
   4
    0.01314061
H       0.00000000     -0.75249900      0.39263800
H       0.00000000      1.13212200      0.81260300
H      -0.66335500     -2.40084900      2.57732500
S       0.00000000     -0.01196700      1.50811700
   4
    0.00199442
H       0.00000000     -0.75249900      0.39263800
H       0.00000000      1.13212200      0.81260300
H      -0.70020800     -2.53356400      2.63672600
S       0.00000000     -0.01196700      1.50811700
   4
   -0.00429576
H       0.00000000     -0.75249900      0.39263800
H       0.00000000      1.13212200      0.81260300
H      -0.73706100     -2.66628000      2.69612600
S       0.00000000     -0.01196700      1.50811700
   4
   -0.00744059
H       0.00000000     -0.75249900      0.39263800
H       0.00000000      1.13212200      0.81260300
H      -0.77391400     -2.79899600      2.75552600
S       0.00000000     -0.01196700      1.50811700
   4
   -0.00863984
H       0.00000000     -0.75249900      0.39263800
H       0.00000000      1.13212200      0.81260300
H      -0.81076800     -2.93171100      2.81492700
S       0.00000000     -0.01196700      1.50811700
   4
   -0.00869998
H       0.00000000     -0.75249900      0.39263800
H       0.00000000      1.13212200      0.81260300
H      -0.84762100     -3.06442700      2.87432700
S       0.00000000     -0.01196700      1.50811700
   4
   -0.00814482
H       0.00000000     -0.75249900      0.39263800
H       0.00000000      1.13212200      0.81260300
H      -0.88447400     -3.19714200      2.93372800
S       0.00000000     -0.01196700      1.50811700
   4
   -0.00730232
H       0.00000000     -0.75249900      0.39263800
H       0.00000000      1.13212200      0.81260300
H      -0.92132700     -3.32985800      2.99312800
S       0.00000000     -0.01196700      1.50811700
   4
   -0.00636866
H       0.00000000     -0.75249900      0.39263800
H       0.00000000      1.13212200      0.81260300
H      -0.95818000     -3.46257400      3.05252900
S       0.00000000     -0.01196700      1.50811700
   4
   -0.00545411
H       0.00000000     -0.75249900      0.39263800
H       0.00000000      1.13212200      0.81260300
H      -0.99503300     -3.59528900      3.11192900
S       0.00000000     -0.01196700      1.50811700
   4
   -0.00461476
H       0.00000000     -0.75249900      0.39263800
H       0.00000000      1.13212200      0.81260300
H      -1.03188600     -3.72800500      3.17132900
S       0.00000000     -0.01196700      1.50811700
   4
   -0.00387394
H       0.00000000     -0.75249900      0.39263800
H       0.00000000      1.13212200      0.81260300
H      -1.06873900     -3.86072100      3.23073000
S       0.00000000     -0.01196700      1.50811700
   4
   -0.00323621
H       0.00000000     -0.75249900      0.39263800
H       0.00000000      1.13212200      0.81260300
H      -1.10559200     -3.99343600      3.29013000
S       0.00000000     -0.01196700      1.50811700
   4
   -0.00269609
H       0.00000000     -0.75249900      0.39263800
H       0.00000000      1.13212200      0.81260300
H      -1.14244500     -4.12615200      3.34953100
S       0.00000000     -0.01196700      1.50811700
   4
   -0.00224352
H       0.00000000     -0.75249900      0.39263800
H       0.00000000      1.13212200      0.81260300
H      -1.17929800     -4.25886800      3.40893100
S       0.00000000     -0.01196700      1.50811700
   4
   -0.00186684
H       0.00000000     -0.75249900      0.39263800
H       0.00000000      1.13212200      0.81260300
H      -1.21615100     -4.39158300      3.46833200
S       0.00000000     -0.01196700      1.50811700
   4
   -0.00155457
H       0.00000000     -0.75249900      0.39263800
H       0.00000000      1.13212200      0.81260300
H      -1.25300400     -4.52429900      3.52773200
S       0.00000000     -0.01196700      1.50811700
   4
   -0.00129619
H       0.00000000     -0.75249900      0.39263800
H       0.00000000      1.13212200      0.81260300
H      -1.28985700     -4.65701400      3.58713300
S       0.00000000     -0.01196700      1.50811700
   4
   -0.00108251
H       0.00000000     -0.75249900      0.39263800
H       0.00000000      1.13212200      0.81260300
H      -1.32671100     -4.78973000      3.64653300
S       0.00000000     -0.01196700      1.50811700
   4
   -0.00090568
H       0.00000000     -0.75249900      0.39263800
H       0.00000000      1.13212200      0.81260300
H      -1.36356400     -4.92244600      3.70593300
S       0.00000000     -0.01196700      1.50811700
   4
   -0.00075917
H       0.00000000     -0.75249900      0.39263800
H       0.00000000      1.13212200      0.81260300
H      -1.40041700     -5.05516100      3.76533400
S       0.00000000     -0.01196700      1.50811700
   4
   -0.00063755
H       0.00000000     -0.75249900      0.39263800
H       0.00000000      1.13212200      0.81260300
H      -1.43727000     -5.18787700      3.82473400
S       0.00000000     -0.01196700      1.50811700
   4
   -0.00053639
H       0.00000000     -0.75249900      0.39263800
H       0.00000000      1.13212200      0.81260300
H      -1.47412300     -5.32059300      3.88413500
S       0.00000000     -0.01196700      1.50811700
   4
   -0.00045206
H       0.00000000     -0.75249900      0.39263800
H       0.00000000      1.13212200      0.81260300
H      -1.51097600     -5.45330800      3.94353500
S       0.00000000     -0.01196700      1.50811700
   4
   -0.00038159
H       0.00000000     -0.75249900      0.39263800
H       0.00000000      1.13212200      0.81260300
H      -1.54782900     -5.58602400      4.00293600
S       0.00000000     -0.01196700      1.50811700
   4
   -0.00032258
H       0.00000000     -0.75249900      0.39263800
H       0.00000000      1.13212200      0.81260300
H      -1.58468200     -5.71873900      4.06233600
S       0.00000000     -0.01196700      1.50811700
   4
   -0.00027305
H       0.00000000     -0.75249900      0.39263800
H       0.00000000      1.13212200      0.81260300
H      -1.62153500     -5.85145500      4.12173600
S       0.00000000     -0.01196700      1.50811700
   4
   -0.00023140
H       0.00000000     -0.75249900      0.39263800
H       0.00000000      1.13212200      0.81260300
H      -1.65838800     -5.98417100      4.18113700
S       0.00000000     -0.01196700      1.50811700
   4
   -0.00019631
H       0.00000000     -0.75249900      0.39263800
H       0.00000000      1.13212200      0.81260300
H      -1.69524100     -6.11688600      4.24053700
S       0.00000000     -0.01196700      1.50811700
   4
   -0.00016669
H       0.00000000     -0.75249900      0.39263800
H       0.00000000      1.13212200      0.81260300
H      -1.73209400     -6.24960200      4.29993800
S       0.00000000     -0.01196700      1.50811700
   4
   -0.00014166
H       0.00000000     -0.75249900      0.39263800
H       0.00000000      1.13212200      0.81260300
H      -1.76894700     -6.38231800      4.35933800
S       0.00000000     -0.01196700      1.50811700
   4
   -0.00012046
H       0.00000000     -0.75249900      0.39263800
H       0.00000000      1.13212200      0.81260300
H      -1.80580000     -6.51503300      4.41873900
S       0.00000000     -0.01196700      1.50811700
   4
   -0.00010250
H       0.00000000     -0.75249900      0.39263800
H       0.00000000      1.13212200      0.81260300
H      -1.84265400     -6.64774900      4.47813900
S       0.00000000     -0.01196700      1.50811700
   4
   -0.00008726
H       0.00000000     -0.75249900      0.39263800
H       0.00000000      1.13212200      0.81260300
H      -1.87950700     -6.78046500      4.53754000
S       0.00000000     -0.01196700      1.50811700
   4
   -0.00007432
H       0.00000000     -0.75249900      0.39263800
H       0.00000000      1.13212200      0.81260300
H      -1.91636000     -6.91318000      4.59694000
S       0.00000000     -0.01196700      1.50811700
   4
   -0.00006332
H       0.00000000     -0.75249900      0.39263800
H       0.00000000      1.13212200      0.81260300
H      -1.95321300     -7.04589600      4.65634000
S       0.00000000     -0.01196700      1.50811700
   4
   -0.00005396
H       0.00000000     -0.75249900      0.39263800
H       0.00000000      1.13212200      0.81260300
H      -1.99006600     -7.17861100      4.71574100
S       0.00000000     -0.01196700      1.50811700
   4
   -0.00004600
H       0.00000000     -0.75249900      0.39263800
H       0.00000000      1.13212200      0.81260300
H      -2.02691900     -7.31132700      4.77514100
S       0.00000000     -0.01196700      1.50811700
   4
   -0.00003922
H       0.00000000     -0.75249900      0.39263800
H       0.00000000      1.13212200      0.81260300
H      -2.06377200     -7.44404300      4.83454200
S       0.00000000     -0.01196700      1.50811700
   4
   -0.00003344
H       0.00000000     -0.75249900      0.39263800
H       0.00000000      1.13212200      0.81260300
H      -2.10062500     -7.57675800      4.89394200
S       0.00000000     -0.01196700      1.50811700
   4
   -0.00002851
H       0.00000000     -0.75249900      0.39263800
H       0.00000000      1.13212200      0.81260300
H      -2.13747800     -7.70947400      4.95334300
S       0.00000000     -0.01196700      1.50811700
   4
   -0.00002431
H       0.00000000     -0.75249900      0.39263800
H       0.00000000      1.13212200      0.81260300
H      -2.17433100     -7.84219000      5.01274300
S       0.00000000     -0.01196700      1.50811700
   4
   -0.00002073
H       0.00000000     -0.75249900      0.39263800
H       0.00000000      1.13212200      0.81260300
H      -2.21118400     -7.97490500      5.07214300
S       0.00000000     -0.01196700      1.50811700
   4
   -0.00001767
H       0.00000000     -0.75249900      0.39263800
H       0.00000000      1.13212200      0.81260300
H      -2.24803700     -8.10762100      5.13154400
S       0.00000000     -0.01196700      1.50811700
   4
   -0.00001506
H       0.00000000     -0.75249900      0.39263800
H       0.00000000      1.13212200      0.81260300
H      -2.28489000     -8.24033700      5.19094400
S       0.00000000     -0.01196700      1.50811700
   4
   -0.00001284
H       0.00000000     -0.75249900      0.39263800
H       0.00000000      1.13212200      0.81260300
H      -2.32174300     -8.37305200      5.25034500
S       0.00000000     -0.01196700      1.50811700
   4
   -0.00001093
H       0.00000000     -0.75249900      0.39263800
H       0.00000000      1.13212200      0.81260300
H      -2.35859700     -8.50576800      5.30974500
S       0.00000000     -0.01196700      1.50811700
   4
   -0.00000931
H       0.00000000     -0.75249900      0.39263800
H       0.00000000      1.13212200      0.81260300
H      -2.39545000     -8.63848300      5.36914600
S       0.00000000     -0.01196700      1.50811700
   4
   -0.00000793
H       0.00000000     -0.75249900      0.39263800
H       0.00000000      1.13212200      0.81260300
H      -2.43230300     -8.77119900      5.42854600
S       0.00000000     -0.01196700      1.50811700
   4
   -0.00000674
H       0.00000000     -0.75249900      0.39263800
H       0.00000000      1.13212200      0.81260300
H      -2.46915600     -8.90391500      5.48794700
S       0.00000000     -0.01196700      1.50811700
   4
   -0.00000573
H       0.00000000     -0.75249900      0.39263800
H       0.00000000      1.13212200      0.81260300
H      -2.50600900     -9.03663000      5.54734700
S       0.00000000     -0.01196700      1.50811700
   4
   -0.00000487
H       0.00000000     -0.75249900      0.39263800
H       0.00000000      1.13212200      0.81260300
H      -2.54286200     -9.16934600      5.60674700
S       0.00000000     -0.01196700      1.50811700
   4
   -0.00000413
H       0.00000000     -0.75249900      0.39263800
H       0.00000000      1.13212200      0.81260300
H      -2.57971500     -9.30206200      5.66614800
S       0.00000000     -0.01196700      1.50811700
   4
   -0.00000350
H       0.00000000     -0.75249900      0.39263800
H       0.00000000      1.13212200      0.81260300
H      -2.61656800     -9.43477700      5.72554800
S       0.00000000     -0.01196700      1.50811700
   4
   -0.00000296
H       0.00000000     -0.75249900      0.39263800
H       0.00000000      1.13212200      0.81260300
H      -2.65342100     -9.56749300      5.78494900
S       0.00000000     -0.01196700      1.50811700
   4
   -0.00000250
H       0.00000000     -0.75249900      0.39263800
H       0.00000000      1.13212200      0.81260300
H      -2.69027400     -9.70020800      5.84434900
S       0.00000000     -0.01196700      1.50811700
   4
   -0.00000211
H       0.00000000     -0.75249900      0.39263800
H       0.00000000      1.13212200      0.81260300
H      -2.72712700     -9.83292400      5.90375000
S       0.00000000     -0.01196700      1.50811700
   4
   -0.00000178
H       0.00000000     -0.75249900      0.39263800
H       0.00000000      1.13212200      0.81260300
H      -2.76398000     -9.96564000      5.96315000
S       0.00000000     -0.01196700      1.50811700
   4
   -0.00000149
H       0.00000000     -0.75249900      0.39263800
H       0.00000000      1.13212200      0.81260300
H      -2.80083300    -10.09835500      6.02255000
S       0.00000000     -0.01196700      1.50811700
   4
   -0.00000125
H       0.00000000     -0.75249900      0.39263800
H       0.00000000      1.13212200      0.81260300
H      -2.83768600    -10.23107100      6.08195100
S       0.00000000     -0.01196700      1.50811700
   4
   -0.00000104
H       0.00000000     -0.75249900      0.39263800
H       0.00000000      1.13212200      0.81260300
H      -2.87453900    -10.36378700      6.14135100
S       0.00000000     -0.01196700      1.50811700
   4
   -0.00000086
H       0.00000000     -0.75249900      0.39263800
H       0.00000000      1.13212200      0.81260300
H      -2.91139300    -10.49650200      6.20075200
S       0.00000000     -0.01196700      1.50811700
   4
   -0.00000070
H       0.00000000     -0.75249900      0.39263800
H       0.00000000      1.13212200      0.81260300
H      -2.94824600    -10.62921800      6.26015200
S       0.00000000     -0.01196700      1.50811700
   4
   -0.00000057
H       0.00000000     -0.75249900      0.39263800
H       0.00000000      1.13212200      0.81260300
H      -2.98509900    -10.76193400      6.31955300
S       0.00000000     -0.01196700      1.50811700
   4
   -0.00000046
H       0.00000000     -0.75249900      0.39263800
H       0.00000000      1.13212200      0.81260300
H      -3.02195200    -10.89464900      6.37895300
S       0.00000000     -0.01196700      1.50811700
   4
   -0.00000037
H       0.00000000     -0.75249900      0.39263800
H       0.00000000      1.13212200      0.81260300
H      -3.05880500    -11.02736500      6.43835400
S       0.00000000     -0.01196700      1.50811700
   4
   -0.00000029
H       0.00000000     -0.75249900      0.39263800
H       0.00000000      1.13212200      0.81260300
H      -3.09565800    -11.16008000      6.49775400
S       0.00000000     -0.01196700      1.50811700
   4
   -0.00000022
H       0.00000000     -0.75249900      0.39263800
H       0.00000000      1.13212200      0.81260300
H      -3.13251100    -11.29279600      6.55715400
S       0.00000000     -0.01196700      1.50811700
   4
   -0.00000016
H       0.00000000     -0.75249900      0.39263800
H       0.00000000      1.13212200      0.81260300
H      -3.16936400    -11.42551200      6.61655500
S       0.00000000     -0.01196700      1.50811700
   4
   -0.00000011
H       0.00000000     -0.75249900      0.39263800
H       0.00000000      1.13212200      0.81260300
H      -3.20621700    -11.55822700      6.67595500
S       0.00000000     -0.01196700      1.50811700
   4
   -0.00000006
H       0.00000000     -0.75249900      0.39263800
H       0.00000000      1.13212200      0.81260300
H      -3.24307000    -11.69094300      6.73535600
S       0.00000000     -0.01196700      1.50811700
   4
   -0.00000003
H       0.00000000     -0.75249900      0.39263800
H       0.00000000      1.13212200      0.81260300
H      -3.27992300    -11.82365900      6.79475600
S       0.00000000     -0.01196700      1.50811700
   4
    0.00000001
H       0.00000000     -0.75249900      0.39263800
H       0.00000000      1.13212200      0.81260300
H      -3.31677600    -11.95637400      6.85415700
S       0.00000000     -0.01196700      1.50811700
   4
    0.00000003
H       0.00000000     -0.75249900      0.39263800
H       0.00000000      1.13212200      0.81260300
H      -3.35362900    -12.08909000      6.91355700
S       0.00000000     -0.01196700      1.50811700
   4
    0.00000006
H       0.00000000     -0.75249900      0.39263800
H       0.00000000      1.13212200      0.81260300
H      -3.39048200    -12.22180500      6.97295700
S       0.00000000     -0.01196700      1.50811700
   4
    0.00000008
H       0.00000000     -0.75249900      0.39263800
H       0.00000000      1.13212200      0.81260300
H      -3.42733600    -12.35452100      7.03235800
S       0.00000000     -0.01196700      1.50811700
   4
    0.00000009
H       0.00000000     -0.75249900      0.39263800
H       0.00000000      1.13212200      0.81260300
H      -3.46418900    -12.48723700      7.09175800
S       0.00000000     -0.01196700      1.50811700
   4
    0.00000011
H       0.00000000     -0.75249900      0.39263800
H       0.00000000      1.13212200      0.81260300
H      -3.50104200    -12.61995200      7.15115900
S       0.00000000     -0.01196700      1.50811700
   4
    0.00000012
H       0.00000000     -0.75249900      0.39263800
H       0.00000000      1.13212200      0.81260300
H      -3.53789500    -12.75266800      7.21055900
S       0.00000000     -0.01196700      1.50811700
   4
    0.00000013
H       0.00000000     -0.75249900      0.39263800
H       0.00000000      1.13212200      0.81260300
H      -3.57474800    -12.88538400      7.26996000
S       0.00000000     -0.01196700      1.50811700
   4
    0.00000014
H       0.00000000     -0.75249900      0.39263800
H       0.00000000      1.13212200      0.81260300
H      -3.61160100    -13.01809900      7.32936000
S       0.00000000     -0.01196700      1.50811700
   4
    0.00000015
H       0.00000000     -0.75249900      0.39263800
H       0.00000000      1.13212200      0.81260300
H      -3.64845400    -13.15081500      7.38876100
S       0.00000000     -0.01196700      1.50811700
   4
    0.00000015
H       0.00000000     -0.75249900      0.39263800
H       0.00000000      1.13212200      0.81260300
H      -3.68530700    -13.28353100      7.44816100
S       0.00000000     -0.01196700      1.50811700
   4
    0.00000016
H       0.00000000     -0.75249900      0.39263800
H       0.00000000      1.13212200      0.81260300
H      -3.72216000    -13.41624600      7.50756100
S       0.00000000     -0.01196700      1.50811700
   4
    0.00000016
H       0.00000000     -0.75249900      0.39263800
H       0.00000000      1.13212200      0.81260300
H      -3.75901300    -13.54896200      7.56696200
S       0.00000000     -0.01196700      1.50811700
   4
    0.00000017
H       0.00000000     -0.75249900      0.39263800
H       0.00000000      1.13212200      0.81260300
H      -3.79586600    -13.68167700      7.62636200
S       0.00000000     -0.01196700      1.50811700
   4
    0.00000017
H       0.00000000     -0.75249900      0.39263800
H       0.00000000      1.13212200      0.81260300
H      -3.83271900    -13.81439300      7.68576300
S       0.00000000     -0.01196700      1.50811700
   4
    0.00000017
H       0.00000000     -0.75249900      0.39263800
H       0.00000000      1.13212200      0.81260300
H      -3.86957200    -13.94710900      7.74516300
S       0.00000000     -0.01196700      1.50811700
   4
    0.00000018
H       0.00000000     -0.75249900      0.39263800
H       0.00000000      1.13212200      0.81260300
H      -3.90642500    -14.07982400      7.80456400
S       0.00000000     -0.01196700      1.50811700
   4
    0.00000018
H       0.00000000     -0.75249900      0.39263800
H       0.00000000      1.13212200      0.81260300
H      -3.94327900    -14.21254000      7.86396400
S       0.00000000     -0.01196700      1.50811700
   4
    0.00000018
H       0.00000000     -0.75249900      0.39263800
H       0.00000000      1.13212200      0.81260300
H      -3.98013200    -14.34525600      7.92336400
S       0.00000000     -0.01196700      1.50811700
   4
    0.00000018
H       0.00000000     -0.75249900      0.39263800
H       0.00000000      1.13212200      0.81260300
H      -4.01698500    -14.47797100      7.98276500
S       0.00000000     -0.01196700      1.50811700
   4
    0.00000018
H       0.00000000     -0.75249900      0.39263800
H       0.00000000      1.13212200      0.81260300
H      -4.05383800    -14.61068700      8.04216500
S       0.00000000     -0.01196700      1.50811700
   4
    0.00000018
H       0.00000000     -0.75249900      0.39263800
H       0.00000000      1.13212200      0.81260300
H      -4.09069100    -14.74340300      8.10156600
S       0.00000000     -0.01196700      1.50811700
   4
    0.00000019
H       0.00000000     -0.75249900      0.39263800
H       0.00000000      1.13212200      0.81260300
H      -4.12754400    -14.87611800      8.16096600
S       0.00000000     -0.01196700      1.50811700
   4
    0.00000019
H       0.00000000     -0.75249900      0.39263800
H       0.00000000      1.13212200      0.81260300
H      -4.16439700    -15.00883400      8.22036700
S       0.00000000     -0.01196700      1.50811700
   4
    0.00000019
H       0.00000000     -0.75249900      0.39263800
H       0.00000000      1.13212200      0.81260300
H      -4.20125000    -15.14154900      8.27976700
S       0.00000000     -0.01196700      1.50811700
   4
    0.00000019
H       0.00000000     -0.75249900      0.39263800
H       0.00000000      1.13212200      0.81260300
H      -4.23810300    -15.27426500      8.33916800
S       0.00000000     -0.01196700      1.50811700
   4
    0.00000019
H       0.00000000     -0.75249900      0.39263800
H       0.00000000      1.13212200      0.81260300
H      -4.27495600    -15.40698100      8.39856800
S       0.00000000     -0.01196700      1.50811700
   4
    0.00000019
H       0.00000000     -0.75249900      0.39263800
H       0.00000000      1.13212200      0.81260300
H      -4.31180900    -15.53969600      8.45796800
S       0.00000000     -0.01196700      1.50811700
   4
    0.00000019
H       0.00000000     -0.75249900      0.39263800
H       0.00000000      1.13212200      0.81260300
H      -4.34866200    -15.67241200      8.51736900
S       0.00000000     -0.01196700      1.50811700
   4
    0.00000019
H       0.00000000     -0.75249900      0.39263800
H       0.00000000      1.13212200      0.81260300
H      -4.38551500    -15.80512800      8.57676900
S       0.00000000     -0.01196700      1.50811700
   4
    0.00000019
H       0.00000000     -0.75249900      0.39263800
H       0.00000000      1.13212200      0.81260300
H      -4.42236800    -15.93784300      8.63617000
S       0.00000000     -0.01196700      1.50811700
   4
    0.00000019
H       0.00000000     -0.75249900      0.39263800
H       0.00000000      1.13212200      0.81260300
H      -4.45922200    -16.07055900      8.69557000
S       0.00000000     -0.01196700      1.50811700
   4
    0.00000019
H       0.00000000     -0.75249900      0.39263800
H       0.00000000      1.13212200      0.81260300
H      -4.49607500    -16.20327400      8.75497100
S       0.00000000     -0.01196700      1.50811700
   4
    0.00000019
H       0.00000000     -0.75249900      0.39263800
H       0.00000000      1.13212200      0.81260300
H      -4.53292800    -16.33599000      8.81437100
S       0.00000000     -0.01196700      1.50811700
   4
    0.00000019
H       0.00000000     -0.75249900      0.39263800
H       0.00000000      1.13212200      0.81260300
H      -4.56978100    -16.46870600      8.87377200
S       0.00000000     -0.01196700      1.50811700
   4
    0.00000019
H       0.00000000     -0.75249900      0.39263800
H       0.00000000      1.13212200      0.81260300
H      -4.60663400    -16.60142100      8.93317200
S       0.00000000     -0.01196700      1.50811700
   4
    0.00000019
H       0.00000000     -0.75249900      0.39263800
H       0.00000000      1.13212200      0.81260300
H      -4.64348700    -16.73413700      8.99257200
S       0.00000000     -0.01196700      1.50811700
   4
    0.00000019
H       0.00000000     -0.75249900      0.39263800
H       0.00000000      1.13212200      0.81260300
H      -4.68034000    -16.86685300      9.05197300
S       0.00000000     -0.01196700      1.50811700
   4
    0.00000019
H       0.00000000     -0.75249900      0.39263800
H       0.00000000      1.13212200      0.81260300
H      -4.71719300    -16.99956800      9.11137300
S       0.00000000     -0.01196700      1.50811700
   4
    0.00000019
H       0.00000000     -0.75249900      0.39263800
H       0.00000000      1.13212200      0.81260300
H      -4.75404600    -17.13228400      9.17077400
S       0.00000000     -0.01196700      1.50811700
   4
    0.00000019
H       0.00000000     -0.75249900      0.39263800
H       0.00000000      1.13212200      0.81260300
H      -4.79089900    -17.26500000      9.23017400
S       0.00000000     -0.01196700      1.50811700
   4
    0.00000019
H       0.00000000     -0.75249900      0.39263800
H       0.00000000      1.13212200      0.81260300
H      -4.82775200    -17.39771500      9.28957500
S       0.00000000     -0.01196700      1.50811700
   4
    0.00000019
H       0.00000000     -0.75249900      0.39263800
H       0.00000000      1.13212200      0.81260300
H      -4.86460500    -17.53043100      9.34897500
S       0.00000000     -0.01196700      1.50811700
   4
    0.00000019
H       0.00000000     -0.75249900      0.39263800
H       0.00000000      1.13212200      0.81260300
H      -4.90145800    -17.66314600      9.40837500
S       0.00000000     -0.01196700      1.50811700
   4
    0.00000019
H       0.00000000     -0.75249900      0.39263800
H       0.00000000      1.13212200      0.81260300
H      -4.93831100    -17.79586200      9.46777600
S       0.00000000     -0.01196700      1.50811700
   4
    0.00000019
H       0.00000000     -0.75249900      0.39263800
H       0.00000000      1.13212200      0.81260300
H      -4.97516400    -17.92857800      9.52717600
S       0.00000000     -0.01196700      1.50811700
   4
    0.00000019
H       0.00000000     -0.75249900      0.39263800
H       0.00000000      1.13212200      0.81260300
H      -5.01201800    -18.06129300      9.58657700
S       0.00000000     -0.01196700      1.50811700
   4
    0.00000019
H       0.00000000     -0.75249900      0.39263800
H       0.00000000      1.13212200      0.81260300
H      -5.04887100    -18.19400900      9.64597700
S       0.00000000     -0.01196700      1.50811700
   4
    0.00000019
H       0.00000000     -0.75249900      0.39263800
H       0.00000000      1.13212200      0.81260300
H      -5.08572400    -18.32672500      9.70537800
S       0.00000000     -0.01196700      1.50811700
   4
    0.00000019
H       0.00000000     -0.75249900      0.39263800
H       0.00000000      1.13212200      0.81260300
H      -5.12257700    -18.45944000      9.76477800
S       0.00000000     -0.01196700      1.50811700
   4
    0.00000019
H       0.00000000     -0.75249900      0.39263800
H       0.00000000      1.13212200      0.81260300
H      -5.15943000    -18.59215600      9.82417900
S       0.00000000     -0.01196700      1.50811700
   4
    0.00000019
H       0.00000000     -0.75249900      0.39263800
H       0.00000000      1.13212200      0.81260300
H      -5.19628300    -18.72487100      9.88357900
S       0.00000000     -0.01196700      1.50811700
   4
    0.00000019
H       0.00000000     -0.75249900      0.39263800
H       0.00000000      1.13212200      0.81260300
H      -5.23313600    -18.85758700      9.94297900
S       0.00000000     -0.01196700      1.50811700
   4
    0.00000019
H       0.00000000     -0.75249900      0.39263800
H       0.00000000      1.13212200      0.81260300
H      -5.26998900    -18.99030300     10.00238000
S       0.00000000     -0.01196700      1.50811700
   4
    0.00000019
H       0.00000000     -0.75249900      0.39263800
H       0.00000000      1.13212200      0.81260300
H      -5.30684200    -19.12301800     10.06178000
S       0.00000000     -0.01196700      1.50811700
   4
    0.00000019
H       0.00000000     -0.75249900      0.39263800
H       0.00000000      1.13212200      0.81260300
H      -5.34369500    -19.25573400     10.12118100
S       0.00000000     -0.01196700      1.50811700
   4
    0.00000019
H       0.00000000     -0.75249900      0.39263800
H       0.00000000      1.13212200      0.81260300
H      -5.38054800    -19.38845000     10.18058100
S       0.00000000     -0.01196700      1.50811700
   4
    0.00000019
H       0.00000000     -0.75249900      0.39263800
H       0.00000000      1.13212200      0.81260300
H      -5.41740100    -19.52116500     10.23998200
S       0.00000000     -0.01196700      1.50811700
   4
    0.00000019
H       0.00000000     -0.75249900      0.39263800
H       0.00000000      1.13212200      0.81260300
H      -5.45425400    -19.65388100     10.29938200
S       0.00000000     -0.01196700      1.50811700
   4
    0.00000019
H       0.00000000     -0.75249900      0.39263800
H       0.00000000      1.13212200      0.81260300
H      -5.49110700    -19.78659700     10.35878200
S       0.00000000     -0.01196700      1.50811700
   4
    0.00000019
H       0.00000000     -0.75249900      0.39263800
H       0.00000000      1.13212200      0.81260300
H      -5.52796100    -19.91931200     10.41818300
S       0.00000000     -0.01196700      1.50811700
   4
    0.00000019
H       0.00000000     -0.75249900      0.39263800
H       0.00000000      1.13212200      0.81260300
H      -5.56481400    -20.05202800     10.47758300
S       0.00000000     -0.01196700      1.50811700
   4
    0.00000019
H       0.00000000     -0.75249900      0.39263800
H       0.00000000      1.13212200      0.81260300
H      -5.60166700    -20.18474300     10.53698400
S       0.00000000     -0.01196700      1.50811700
   4
    0.00000019
H       0.00000000     -0.75249900      0.39263800
H       0.00000000      1.13212200      0.81260300
H      -5.63852000    -20.31745900     10.59638400
S       0.00000000     -0.01196700      1.50811700
   4
    0.00000019
H       0.00000000     -0.75249900      0.39263800
H       0.00000000      1.13212200      0.81260300
H      -5.67537300    -20.45017500     10.65578500
S       0.00000000     -0.01196700      1.50811700
   4
    0.00000019
H       0.00000000     -0.75249900      0.39263800
H       0.00000000      1.13212200      0.81260300
H      -5.71222600    -20.58289000     10.71518500
S       0.00000000     -0.01196700      1.50811700
   4
    0.00000019
H       0.00000000     -0.75249900      0.39263800
H       0.00000000      1.13212200      0.81260300
H      -5.74907900    -20.71560600     10.77458600
S       0.00000000     -0.01196700      1.50811700
   4
    0.00000019
H       0.00000000     -0.75249900      0.39263800
H       0.00000000      1.13212200      0.81260300
H      -5.78593200    -20.84832200     10.83398600
S       0.00000000     -0.01196700      1.50811700
   4
    0.00000019
H       0.00000000     -0.75249900      0.39263800
H       0.00000000      1.13212200      0.81260300
H      -5.82278500    -20.98103700     10.89338600
S       0.00000000     -0.01196700      1.50811700
   4
    0.00000019
H       0.00000000     -0.75249900      0.39263800
H       0.00000000      1.13212200      0.81260300
H      -5.85963800    -21.11375300     10.95278700
S       0.00000000     -0.01196700      1.50811700
   4
    0.00000019
H       0.00000000     -0.75249900      0.39263800
H       0.00000000      1.13212200      0.81260300
H      -5.89649100    -21.24646900     11.01218700
S       0.00000000     -0.01196700      1.50811700
   4
    0.00000019
H       0.00000000     -0.75249900      0.39263800
H       0.00000000      1.13212200      0.81260300
H      -5.93334400    -21.37918400     11.07158800
S       0.00000000     -0.01196700      1.50811700
   4
    0.00000019
H       0.00000000     -0.75249900      0.39263800
H       0.00000000      1.13212200      0.81260300
H      -5.97019700    -21.51190000     11.13098800
S       0.00000000     -0.01196700      1.50811700
   4
    0.00000019
H       0.00000000     -0.75249900      0.39263800
H       0.00000000      1.13212200      0.81260300
H      -6.00705000    -21.64461500     11.19038900
S       0.00000000     -0.01196700      1.50811700
   4
    0.00000019
H       0.00000000     -0.75249900      0.39263800
H       0.00000000      1.13212200      0.81260300
H      -6.04390400    -21.77733100     11.24978900
S       0.00000000     -0.01196700      1.50811700
   4
    0.00000019
H       0.00000000     -0.75249900      0.39263800
H       0.00000000      1.13212200      0.81260300
H      -6.08075700    -21.91004700     11.30918900
S       0.00000000     -0.01196700      1.50811700
   4
    0.00000019
H       0.00000000     -0.75249900      0.39263800
H       0.00000000      1.13212200      0.81260300
H      -6.11761000    -22.04276200     11.36859000
S       0.00000000     -0.01196700      1.50811700
   4
    0.00000019
H       0.00000000     -0.75249900      0.39263800
H       0.00000000      1.13212200      0.81260300
H      -6.15446300    -22.17547800     11.42799000
S       0.00000000     -0.01196700      1.50811700
   4
    0.00000019
H       0.00000000     -0.75249900      0.39263800
H       0.00000000      1.13212200      0.81260300
H      -6.19131600    -22.30819400     11.48739100
S       0.00000000     -0.01196700      1.50811700
   4
    0.00000019
H       0.00000000     -0.75249900      0.39263800
H       0.00000000      1.13212200      0.81260300
H      -6.22816900    -22.44090900     11.54679100
S       0.00000000     -0.01196700      1.50811700
   4
    0.00000019
H       0.00000000     -0.75249900      0.39263800
H       0.00000000      1.13212200      0.81260300
H      -6.26502200    -22.57362500     11.60619200
S       0.00000000     -0.01196700      1.50811700
   4
    0.00000019
H       0.00000000     -0.75249900      0.39263800
H       0.00000000      1.13212200      0.81260300
H      -6.30187500    -22.70634000     11.66559200
S       0.00000000     -0.01196700      1.50811700
   4
    0.00000019
H       0.00000000     -0.75249900      0.39263800
H       0.00000000      1.13212200      0.81260300
H      -6.33872800    -22.83905600     11.72499300
S       0.00000000     -0.01196700      1.50811700
   4
    0.00000019
H       0.00000000     -0.75249900      0.39263800
H       0.00000000      1.13212200      0.81260300
H      -6.37558100    -22.97177200     11.78439300
S       0.00000000     -0.01196700      1.50811700
   4
    0.00000019
H       0.00000000     -0.75249900      0.39263800
H       0.00000000      1.13212200      0.81260300
H      -6.41243400    -23.10448700     11.84379300
S       0.00000000     -0.01196700      1.50811700
   4
    0.00000019
H       0.00000000     -0.75249900      0.39263800
H       0.00000000      1.13212200      0.81260300
H      -6.44928700    -23.23720300     11.90319400
S       0.00000000     -0.01196700      1.50811700
   4
    0.00000019
H       0.00000000     -0.75249900      0.39263800
H       0.00000000      1.13212200      0.81260300
H      -6.48614000    -23.36991900     11.96259400
S       0.00000000     -0.01196700      1.50811700
   4
    0.00000019
H       0.00000000     -0.75249900      0.39263800
H       0.00000000      1.13212200      0.81260300
H      -6.52299300    -23.50263400     12.02199500
S       0.00000000     -0.01196700      1.50811700
   4
    0.00000019
H       0.00000000     -0.75249900      0.39263800
H       0.00000000      1.13212200      0.81260300
H      -6.55984700    -23.63535000     12.08139500
S       0.00000000     -0.01196700      1.50811700
   4
    0.00000019
H       0.00000000     -0.75249900      0.39263800
H       0.00000000      1.13212200      0.81260300
H      -6.59670000    -23.76806600     12.14079600
S       0.00000000     -0.01196700      1.50811700
   4
    0.00000019
H       0.00000000     -0.75249900      0.39263800
H       0.00000000      1.13212200      0.81260300
H      -6.63355300    -23.90078100     12.20019600
S       0.00000000     -0.01196700      1.50811700
   4
    0.00000019
H       0.00000000     -0.75249900      0.39263800
H       0.00000000      1.13212200      0.81260300
H      -6.67040600    -24.03349700     12.25959600
S       0.00000000     -0.01196700      1.50811700
   4
    0.00000019
H       0.00000000     -0.75249900      0.39263800
H       0.00000000      1.13212200      0.81260300
H      -6.70725900    -24.16621200     12.31899700
S       0.00000000     -0.01196700      1.50811700
   4
    0.00000019
H       0.00000000     -0.75249900      0.39263800
H       0.00000000      1.13212200      0.81260300
H      -6.74411200    -24.29892800     12.37839700
S       0.00000000     -0.01196700      1.50811700
   4
    0.00000019
H       0.00000000     -0.75249900      0.39263800
H       0.00000000      1.13212200      0.81260300
H      -6.78096500    -24.43164400     12.43779800
S       0.00000000     -0.01196700      1.50811700
   4
    0.00000019
H       0.00000000     -0.75249900      0.39263800
H       0.00000000      1.13212200      0.81260300
H      -6.81781800    -24.56435900     12.49719800
S       0.00000000     -0.01196700      1.50811700
   4
    0.00000019
H       0.00000000     -0.75249900      0.39263800
H       0.00000000      1.13212200      0.81260300
H      -6.85467100    -24.69707500     12.55659900
S       0.00000000     -0.01196700      1.50811700
   4
    0.00000019
H       0.00000000     -0.75249900      0.39263800
H       0.00000000      1.13212200      0.81260300
H      -6.89152400    -24.82979100     12.61599900
S       0.00000000     -0.01196700      1.50811700
   4
    0.00000019
H       0.00000000     -0.75249900      0.39263800
H       0.00000000      1.13212200      0.81260300
H      -6.92837700    -24.96250600     12.67540000
S       0.00000000     -0.01196700      1.50811700
   4
    0.00000019
H       0.00000000     -0.75249900      0.39263800
H       0.00000000      1.13212200      0.81260300
H      -6.96523000    -25.09522200     12.73480000
S       0.00000000     -0.01196700      1.50811700
   4
    0.00000019
H       0.00000000     -0.75249900      0.39263800
H       0.00000000      1.13212200      0.81260300
H      -7.00208300    -25.22793800     12.79420000
S       0.00000000     -0.01196700      1.50811700
   4
    0.00000019
H       0.00000000     -0.75249900      0.39263800
H       0.00000000      1.13212200      0.81260300
H      -7.03893600    -25.36065300     12.85360100
S       0.00000000     -0.01196700      1.50811700
   4
    0.00000019
H       0.00000000     -0.75249900      0.39263800
H       0.00000000      1.13212200      0.81260300
H      -7.07579000    -25.49336900     12.91300100
S       0.00000000     -0.01196700      1.50811700
   4
    0.00000019
H       0.00000000     -0.75249900      0.39263800
H       0.00000000      1.13212200      0.81260300
H      -7.11264300    -25.62608400     12.97240200
S       0.00000000     -0.01196700      1.50811700
   4
    0.00000019
H       0.00000000     -0.75249900      0.39263800
H       0.00000000      1.13212200      0.81260300
H      -7.14949600    -25.75880000     13.03180200
S       0.00000000     -0.01196700      1.50811700
   4
    0.00000019
H       0.00000000     -0.75249900      0.39263800
H       0.00000000      1.13212200      0.81260300
H      -7.18634900    -25.89151600     13.09120300
S       0.00000000     -0.01196700      1.50811700
   4
    0.00000019
H       0.00000000     -0.75249900      0.39263800
H       0.00000000      1.13212200      0.81260300
H      -7.22320200    -26.02423100     13.15060300
S       0.00000000     -0.01196700      1.50811700
   4
    0.00000019
H       0.00000000     -0.75249900      0.39263800
H       0.00000000      1.13212200      0.81260300
H      -7.26005500    -26.15694700     13.21000300
S       0.00000000     -0.01196700      1.50811700
   4
    0.00000019
H       0.00000000     -0.75249900      0.39263800
H       0.00000000      1.13212200      0.81260300
H      -7.29690800    -26.28966300     13.26940400
S       0.00000000     -0.01196700      1.50811700
   4
    0.00000019
H       0.00000000     -0.75249900      0.39263800
H       0.00000000      1.13212200      0.81260300
H      -7.33376100    -26.42237800     13.32880400
S       0.00000000     -0.01196700      1.50811700
   4
    0.00000019
H       0.00000000     -0.75249900      0.39263800
H       0.00000000      1.13212200      0.81260300
H      -7.37061400    -26.55509400     13.38820500
S       0.00000000     -0.01196700      1.50811700
   4
    0.00000019
H       0.00000000     -0.75249900      0.39263800
H       0.00000000      1.13212200      0.81260300
H      -7.40746700    -26.68780900     13.44760500
S       0.00000000     -0.01196700      1.50811700
   4
    0.00000019
H       0.00000000     -0.75249900      0.39263800
H       0.00000000      1.13212200      0.81260300
H      -7.44432000    -26.82052500     13.50700600
S       0.00000000     -0.01196700      1.50811700
   4
    0.00000019
H       0.00000000     -0.75249900      0.39263800
H       0.00000000      1.13212200      0.81260300
H      -7.48117300    -26.95324100     13.56640600
S       0.00000000     -0.01196700      1.50811700
   4
    0.00000019
H       0.00000000     -0.75249900      0.39263800
H       0.00000000      1.13212200      0.81260300
H      -7.51802600    -27.08595600     13.62580700
S       0.00000000     -0.01196700      1.50811700
   4
    0.00000019
H       0.00000000     -0.75249900      0.39263800
H       0.00000000      1.13212200      0.81260300
H      -7.55487900    -27.21867200     13.68520700
S       0.00000000     -0.01196700      1.50811700
   4
    0.00000019
H       0.00000000     -0.75249900      0.39263800
H       0.00000000      1.13212200      0.81260300
H      -7.59173200    -27.35138800     13.74460700
S       0.00000000     -0.01196700      1.50811700
   4
    0.00000019
H       0.00000000     -0.75249900      0.39263800
H       0.00000000      1.13212200      0.81260300
H      -7.62858600    -27.48410300     13.80400800
S       0.00000000     -0.01196700      1.50811700
   4
    0.00000019
H       0.00000000     -0.75249900      0.39263800
H       0.00000000      1.13212200      0.81260300
H      -7.66543900    -27.61681900     13.86340800
S       0.00000000     -0.01196700      1.50811700
   4
    0.00000019
H       0.00000000     -0.75249900      0.39263800
H       0.00000000      1.13212200      0.81260300
H      -7.70229200    -27.74953500     13.92280900
S       0.00000000     -0.01196700      1.50811700
   4
    0.00000019
H       0.00000000     -0.75249900      0.39263800
H       0.00000000      1.13212200      0.81260300
H      -7.73914500    -27.88225000     13.98220900
S       0.00000000     -0.01196700      1.50811700
   4
    0.00000019
H       0.00000000     -0.75249900      0.39263800
H       0.00000000      1.13212200      0.81260300
H      -7.77599800    -28.01496600     14.04161000
S       0.00000000     -0.01196700      1.50811700
   4
    0.00000019
H       0.00000000     -0.75249900      0.39263800
H       0.00000000      1.13212200      0.81260300
H      -7.81285100    -28.14768100     14.10101000
S       0.00000000     -0.01196700      1.50811700
   4
    0.00000019
H       0.00000000     -0.75249900      0.39263800
H       0.00000000      1.13212200      0.81260300
H      -7.84970400    -28.28039700     14.16041000
S       0.00000000     -0.01196700      1.50811700
   4
    0.00000019
H       0.00000000     -0.75249900      0.39263800
H       0.00000000      1.13212200      0.81260300
H      -7.88655700    -28.41311300     14.21981100
S       0.00000000     -0.01196700      1.50811700
   4
    0.00000019
H       0.00000000     -0.75249900      0.39263800
H       0.00000000      1.13212200      0.81260300
H      -7.92341000    -28.54582800     14.27921100
S       0.00000000     -0.01196700      1.50811700
   4
    0.00000019
H       0.00000000     -0.75249900      0.39263800
H       0.00000000      1.13212200      0.81260300
H      -7.96026300    -28.67854400     14.33861200
S       0.00000000     -0.01196700      1.50811700
   4
    0.00000019
H       0.00000000     -0.75249900      0.39263800
H       0.00000000      1.13212200      0.81260300
H      -7.99711600    -28.81126000     14.39801200
S       0.00000000     -0.01196700      1.50811700
   4
    0.00000019
H       0.00000000     -0.75249900      0.39263800
H       0.00000000      1.13212200      0.81260300
H      -8.03396900    -28.94397500     14.45741300
S       0.00000000     -0.01196700      1.50811700
   4
    0.00000019
H       0.00000000     -0.75249900      0.39263800
H       0.00000000      1.13212200      0.81260300
H      -8.07082200    -29.07669100     14.51681300
S       0.00000000     -0.01196700      1.50811700
   4
    0.00000019
H       0.00000000     -0.75249900      0.39263800
H       0.00000000      1.13212200      0.81260300
H      -8.10767500    -29.20940600     14.57621400
S       0.00000000     -0.01196700      1.50811700
   4
    0.00000019
H       0.00000000     -0.75249900      0.39263800
H       0.00000000      1.13212200      0.81260300
H      -8.14452900    -29.34212200     14.63561400
S       0.00000000     -0.01196700      1.50811700
   4
    0.00000019
H       0.00000000     -0.75249900      0.39263800
H       0.00000000      1.13212200      0.81260300
H      -8.18138200    -29.47483800     14.69501400
S       0.00000000     -0.01196700      1.50811700
   4
    0.00000019
H       0.00000000     -0.75249900      0.39263800
H       0.00000000      1.13212200      0.81260300
H      -8.21823500    -29.60755300     14.75441500
S       0.00000000     -0.01196700      1.50811700
   4
    0.00000019
H       0.00000000     -0.75249900      0.39263800
H       0.00000000      1.13212200      0.81260300
H      -8.25508800    -29.74026900     14.81381500
S       0.00000000     -0.01196700      1.50811700
   4
    0.00000019
H       0.00000000     -0.75249900      0.39263800
H       0.00000000      1.13212200      0.81260300
H      -8.29194100    -29.87298500     14.87321600
S       0.00000000     -0.01196700      1.50811700
   4
    0.00000019
H       0.00000000     -0.75249900      0.39263800
H       0.00000000      1.13212200      0.81260300
H      -8.32879400    -30.00570000     14.93261600
S       0.00000000     -0.01196700      1.50811700
   4
    0.00000019
H       0.00000000     -0.75249900      0.39263800
H       0.00000000      1.13212200      0.81260300
H      -8.36564700    -30.13841600     14.99201700
S       0.00000000     -0.01196700      1.50811700
   4
    0.00000019
H       0.00000000     -0.75249900      0.39263800
H       0.00000000      1.13212200      0.81260300
H      -8.40250000    -30.27113200     15.05141700
S       0.00000000     -0.01196700      1.50811700
   4
    0.00000019
H       0.00000000     -0.75249900      0.39263800
H       0.00000000      1.13212200      0.81260300
H      -8.43935300    -30.40384700     15.11081700
S       0.00000000     -0.01196700      1.50811700
   4
    0.00000019
H       0.00000000     -0.75249900      0.39263800
H       0.00000000      1.13212200      0.81260300
H      -8.47620600    -30.53656300     15.17021800
S       0.00000000     -0.01196700      1.50811700
   4
    0.00000019
H       0.00000000     -0.75249900      0.39263800
H       0.00000000      1.13212200      0.81260300
H      -8.51305900    -30.66927800     15.22961800
S       0.00000000     -0.01196700      1.50811700
   4
    0.00000019
H       0.00000000     -0.75249900      0.39263800
H       0.00000000      1.13212200      0.81260300
H      -8.54991200    -30.80199400     15.28901900
S       0.00000000     -0.01196700      1.50811700
   4
    0.00000019
H       0.00000000     -0.75249900      0.39263800
H       0.00000000      1.13212200      0.81260300
H      -8.58676500    -30.93471000     15.34841900
S       0.00000000     -0.01196700      1.50811700
   4
    0.00000019
H       0.00000000     -0.75249900      0.39263800
H       0.00000000      1.13212200      0.81260300
H      -8.62361800    -31.06742500     15.40782000
S       0.00000000     -0.01196700      1.50811700
   4
    0.00000019
H       0.00000000     -0.75249900      0.39263800
H       0.00000000      1.13212200      0.81260300
H      -8.66047200    -31.20014100     15.46722000
S       0.00000000     -0.01196700      1.50811700
   4
    0.00000019
H       0.00000000     -0.75249900      0.39263800
H       0.00000000      1.13212200      0.81260300
H      -8.69732500    -31.33285700     15.52662100
S       0.00000000     -0.01196700      1.50811700
   4
    0.00000019
H       0.00000000     -0.75249900      0.39263800
H       0.00000000      1.13212200      0.81260300
H      -8.73417800    -31.46557200     15.58602100
S       0.00000000     -0.01196700      1.50811700
   4
    0.00000019
H       0.00000000     -0.75249900      0.39263800
H       0.00000000      1.13212200      0.81260300
H      -8.77103100    -31.59828800     15.64542100
S       0.00000000     -0.01196700      1.50811700
   4
    0.00000019
H       0.00000000     -0.75249900      0.39263800
H       0.00000000      1.13212200      0.81260300
H      -8.80788400    -31.73100400     15.70482200
S       0.00000000     -0.01196700      1.50811700
   4
    0.00000019
H       0.00000000     -0.75249900      0.39263800
H       0.00000000      1.13212200      0.81260300
H      -8.84473700    -31.86371900     15.76422200
S       0.00000000     -0.01196700      1.50811700
   4
    0.00000019
H       0.00000000     -0.75249900      0.39263800
H       0.00000000      1.13212200      0.81260300
H      -8.88159000    -31.99643500     15.82362300
S       0.00000000     -0.01196700      1.50811700
   4
    0.00000019
H       0.00000000     -0.75249900      0.39263800
H       0.00000000      1.13212200      0.81260300
H      -8.91844300    -32.12915000     15.88302300
S       0.00000000     -0.01196700      1.50811700
   4
    0.00000019
H       0.00000000     -0.75249900      0.39263800
H       0.00000000      1.13212200      0.81260300
H      -8.95529600    -32.26186600     15.94242400
S       0.00000000     -0.01196700      1.50811700
   4
    0.00000019
H       0.00000000     -0.75249900      0.39263800
H       0.00000000      1.13212200      0.81260300
H      -8.99214900    -32.39458200     16.00182400
S       0.00000000     -0.01196700      1.50811700
   4
    0.00000019
H       0.00000000     -0.75249900      0.39263800
H       0.00000000      1.13212200      0.81260300
H      -9.02900200    -32.52729700     16.06122400
S       0.00000000     -0.01196700      1.50811700
   4
    0.00000019
H       0.00000000     -0.75249900      0.39263800
H       0.00000000      1.13212200      0.81260300
H      -9.06585500    -32.66001300     16.12062500
S       0.00000000     -0.01196700      1.50811700
   4
    0.00000019
H       0.00000000     -0.75249900      0.39263800
H       0.00000000      1.13212200      0.81260300
H      -9.10270800    -32.79272900     16.18002500
S       0.00000000     -0.01196700      1.50811700
   4
    0.00000019
H       0.00000000     -0.75249900      0.39263800
H       0.00000000      1.13212200      0.81260300
H      -9.13956100    -32.92544400     16.23942600
S       0.00000000     -0.01196700      1.50811700
   4
    0.00000019
H       0.00000000     -0.75249900      0.39263800
H       0.00000000      1.13212200      0.81260300
H      -9.17641500    -33.05816000     16.29882600
S       0.00000000     -0.01196700      1.50811700
   4
    0.00000019
H       0.00000000     -0.75249900      0.39263800
H       0.00000000      1.13212200      0.81260300
H      -9.21326800    -33.19087500     16.35822700
S       0.00000000     -0.01196700      1.50811700
   4
    0.00000019
H       0.00000000     -0.75249900      0.39263800
H       0.00000000      1.13212200      0.81260300
H      -9.25012100    -33.32359100     16.41762700
S       0.00000000     -0.01196700      1.50811700
   4
    0.00000019
H       0.00000000     -0.75249900      0.39263800
H       0.00000000      1.13212200      0.81260300
H      -9.28697400    -33.45630700     16.47702800
S       0.00000000     -0.01196700      1.50811700
   4
    0.00000019
H       0.00000000     -0.75249900      0.39263800
H       0.00000000      1.13212200      0.81260300
H      -9.32382700    -33.58902200     16.53642800
S       0.00000000     -0.01196700      1.50811700
   4
    0.00000019
H       0.00000000     -0.75249900      0.39263800
H       0.00000000      1.13212200      0.81260300
H      -9.36068000    -33.72173800     16.59582800
S       0.00000000     -0.01196700      1.50811700
   4
    0.00000019
H       0.00000000     -0.75249900      0.39263800
H       0.00000000      1.13212200      0.81260300
H      -9.39753300    -33.85445400     16.65522900
S       0.00000000     -0.01196700      1.50811700
   4
    0.00000019
H       0.00000000     -0.75249900      0.39263800
H       0.00000000      1.13212200      0.81260300
H      -9.43438600    -33.98716900     16.71462900
S       0.00000000     -0.01196700      1.50811700
   4
    0.00000019
H       0.00000000     -0.75249900      0.39263800
H       0.00000000      1.13212200      0.81260300
H      -9.47123900    -34.11988500     16.77403000
S       0.00000000     -0.01196700      1.50811700
   4
    0.00000019
H       0.00000000     -0.75249900      0.39263800
H       0.00000000      1.13212200      0.81260300
H      -9.50809200    -34.25260100     16.83343000
S       0.00000000     -0.01196700      1.50811700
   4
    0.00000019
H       0.00000000     -0.75249900      0.39263800
H       0.00000000      1.13212200      0.81260300
H      -9.54494500    -34.38531600     16.89283100
S       0.00000000     -0.01196700      1.50811700
   4
    0.00000019
H       0.00000000     -0.75249900      0.39263800
H       0.00000000      1.13212200      0.81260300
H      -9.58179800    -34.51803200     16.95223100
S       0.00000000     -0.01196700      1.50811700
   4
    0.00000019
H       0.00000000     -0.75249900      0.39263800
H       0.00000000      1.13212200      0.81260300
H      -9.61865100    -34.65074700     17.01163200
S       0.00000000     -0.01196700      1.50811700
   4
    0.00000019
H       0.00000000     -0.75249900      0.39263800
H       0.00000000      1.13212200      0.81260300
H      -9.65550400    -34.78346300     17.07103200
S       0.00000000     -0.01196700      1.50811700
   4
    0.00000019
H       0.00000000     -0.75249900      0.39263800
H       0.00000000      1.13212200      0.81260300
H      -9.69235800    -34.91617900     17.13043200
S       0.00000000     -0.01196700      1.50811700
   4
    0.00000019
H       0.00000000     -0.75249900      0.39263800
H       0.00000000      1.13212200      0.81260300
H      -9.72921100    -35.04889400     17.18983300
S       0.00000000     -0.01196700      1.50811700
   4
    0.00000019
H       0.00000000     -0.75249900      0.39263800
H       0.00000000      1.13212200      0.81260300
H      -9.76606400    -35.18161000     17.24923300
S       0.00000000     -0.01196700      1.50811700
   4
    0.00000019
H       0.00000000     -0.75249900      0.39263800
H       0.00000000      1.13212200      0.81260300
H      -9.80291700    -35.31432600     17.30863400
S       0.00000000     -0.01196700      1.50811700
   4
    0.00000019
H       0.00000000     -0.75249900      0.39263800
H       0.00000000      1.13212200      0.81260300
H      -9.83977000    -35.44704100     17.36803400
S       0.00000000     -0.01196700      1.50811700
   4
    0.00000019
H       0.00000000     -0.75249900      0.39263800
H       0.00000000      1.13212200      0.81260300
H      -9.87662300    -35.57975700     17.42743500
S       0.00000000     -0.01196700      1.50811700
   4
    0.00000019
H       0.00000000     -0.75249900      0.39263800
H       0.00000000      1.13212200      0.81260300
H      -9.91347600    -35.71247200     17.48683500
S       0.00000000     -0.01196700      1.50811700
   4
    0.00000019
H       0.00000000     -0.75249900      0.39263800
H       0.00000000      1.13212200      0.81260300
H      -9.95032900    -35.84518800     17.54623500
S       0.00000000     -0.01196700      1.50811700
   4
    0.00000019
H       0.00000000     -0.75249900      0.39263800
H       0.00000000      1.13212200      0.81260300
H      -9.98718200    -35.97790400     17.60563600
S       0.00000000     -0.01196700      1.50811700
   4
    0.00000019
H       0.00000000     -0.75249900      0.39263800
H       0.00000000      1.13212200      0.81260300
H     -10.02403500    -36.11061900     17.66503600
S       0.00000000     -0.01196700      1.50811700
   4
    0.00000019
H       0.00000000     -0.75249900      0.39263800
H       0.00000000      1.13212200      0.81260300
H     -10.06088800    -36.24333500     17.72443700
S       0.00000000     -0.01196700      1.50811700
   4
    0.00000019
H       0.00000000     -0.75249900      0.39263800
H       0.00000000      1.13212200      0.81260300
H     -10.09774100    -36.37605100     17.78383700
S       0.00000000     -0.01196700      1.50811700
   4
    0.00000019
H       0.00000000     -0.75249900      0.39263800
H       0.00000000      1.13212200      0.81260300
H     -10.13459400    -36.50876600     17.84323800
S       0.00000000     -0.01196700      1.50811700
   4
    0.00000019
H       0.00000000     -0.75249900      0.39263800
H       0.00000000      1.13212200      0.81260300
H     -10.17144700    -36.64148200     17.90263800
S       0.00000000     -0.01196700      1.50811700
   4
    0.00000019
H       0.00000000     -0.75249900      0.39263800
H       0.00000000      1.13212200      0.81260300
H     -10.20830000    -36.77419800     17.96203900
S       0.00000000     -0.01196700      1.50811700
   4
    0.00000019
H       0.00000000     -0.75249900      0.39263800
H       0.00000000      1.13212200      0.81260300
H     -10.24515400    -36.90691300     18.02143900
S       0.00000000     -0.01196700      1.50811700
   4
    0.00000019
H       0.00000000     -0.75249900      0.39263800
H       0.00000000      1.13212200      0.81260300
H     -10.28200700    -37.03962900     18.08083900
S       0.00000000     -0.01196700      1.50811700
   4
    0.00000019
H       0.00000000     -0.75249900      0.39263800
H       0.00000000      1.13212200      0.81260300
H     -10.31886000    -37.17234400     18.14024000
S       0.00000000     -0.01196700      1.50811700
   4
    0.00000019
H       0.00000000     -0.75249900      0.39263800
H       0.00000000      1.13212200      0.81260300
H     -10.35571300    -37.30506000     18.19964000
S       0.00000000     -0.01196700      1.50811700
   4
    0.00000019
H       0.00000000     -0.75249900      0.39263800
H       0.00000000      1.13212200      0.81260300
H     -10.39256600    -37.43777600     18.25904100
S       0.00000000     -0.01196700      1.50811700
   4
    0.00000019
H       0.00000000     -0.75249900      0.39263800
H       0.00000000      1.13212200      0.81260300
H     -10.42941900    -37.57049100     18.31844100
S       0.00000000     -0.01196700      1.50811700
   4
    0.00000019
H       0.00000000     -0.75249900      0.39263800
H       0.00000000      1.13212200      0.81260300
H     -10.46627200    -37.70320700     18.37784200
S       0.00000000     -0.01196700      1.50811700
   4
    0.00000019
H       0.00000000     -0.75249900      0.39263800
H       0.00000000      1.13212200      0.81260300
H     -10.50312500    -37.83592300     18.43724200
S       0.00000000     -0.01196700      1.50811700
   4
    0.00000019
H       0.00000000     -0.75249900      0.39263800
H       0.00000000      1.13212200      0.81260300
H     -10.53997800    -37.96863800     18.49664200
S       0.00000000     -0.01196700      1.50811700
   4
    0.00000019
H       0.00000000     -0.75249900      0.39263800
H       0.00000000      1.13212200      0.81260300
H     -10.57683100    -38.10135400     18.55604300
S       0.00000000     -0.01196700      1.50811700
   4
    0.00000019
H       0.00000000     -0.75249900      0.39263800
H       0.00000000      1.13212200      0.81260300
H     -10.61368400    -38.23407000     18.61544300
S       0.00000000     -0.01196700      1.50811700
   4
    0.00000019
H       0.00000000     -0.75249900      0.39263800
H       0.00000000      1.13212200      0.81260300
H     -10.65053700    -38.36678500     18.67484400
S       0.00000000     -0.01196700      1.50811700
   4
    0.00000019
H       0.00000000     -0.75249900      0.39263800
H       0.00000000      1.13212200      0.81260300
H     -10.68739000    -38.49950100     18.73424400
S       0.00000000     -0.01196700      1.50811700
   4
    0.00000019
H       0.00000000     -0.75249900      0.39263800
H       0.00000000      1.13212200      0.81260300
H     -10.72424300    -38.63221600     18.79364500
S       0.00000000     -0.01196700      1.50811700
   4
    0.00000019
H       0.00000000     -0.75249900      0.39263800
H       0.00000000      1.13212200      0.81260300
H     -10.76109700    -38.76493200     18.85304500
S       0.00000000     -0.01196700      1.50811700
   4
    0.00000019
H       0.00000000     -0.75249900      0.39263800
H       0.00000000      1.13212200      0.81260300
H     -10.79795000    -38.89764800     18.91244600
S       0.00000000     -0.01196700      1.50811700
   4
    0.00000019
H       0.00000000     -0.75249900      0.39263800
H       0.00000000      1.13212200      0.81260300
H     -10.83480300    -39.03036300     18.97184600
S       0.00000000     -0.01196700      1.50811700
   4
    0.00000019
H       0.00000000     -0.75249900      0.39263800
H       0.00000000      1.13212200      0.81260300
H     -10.87165600    -39.16307900     19.03124600
S       0.00000000     -0.01196700      1.50811700
   4
    0.00000019
H       0.00000000     -0.75249900      0.39263800
H       0.00000000      1.13212200      0.81260300
H     -10.90850900    -39.29579500     19.09064700
S       0.00000000     -0.01196700      1.50811700
   4
    0.00000019
H       0.00000000     -0.75249900      0.39263800
H       0.00000000      1.13212200      0.81260300
H     -10.94536200    -39.42851000     19.15004700
S       0.00000000     -0.01196700      1.50811700
   4
    0.00000019
H       0.00000000     -0.75249900      0.39263800
H       0.00000000      1.13212200      0.81260300
H     -10.98221500    -39.56122600     19.20944800
S       0.00000000     -0.01196700      1.50811700
   4
    0.00000019
H       0.00000000     -0.75249900      0.39263800
H       0.00000000      1.13212200      0.81260300
H     -11.01906800    -39.69394100     19.26884800
S       0.00000000     -0.01196700      1.50811700
   4
    0.00000019
H       0.00000000     -0.75249900      0.39263800
H       0.00000000      1.13212200      0.81260300
H     -11.05592100    -39.82665700     19.32824900
S       0.00000000     -0.01196700      1.50811700
   4
    0.00000019
H       0.00000000     -0.75249900      0.39263800
H       0.00000000      1.13212200      0.81260300
H     -11.09277400    -39.95937300     19.38764900
S       0.00000000     -0.01196700      1.50811700
   4
    0.00000019
H       0.00000000     -0.75249900      0.39263800
H       0.00000000      1.13212200      0.81260300
H     -11.12962700    -40.09208800     19.44704900
S       0.00000000     -0.01196700      1.50811700
   4
    0.00000019
H       0.00000000     -0.75249900      0.39263800
H       0.00000000      1.13212200      0.81260300
H     -11.16648000    -40.22480400     19.50645000
S       0.00000000     -0.01196700      1.50811700
   4
    0.00000019
H       0.00000000     -0.75249900      0.39263800
H       0.00000000      1.13212200      0.81260300
H     -11.20333300    -40.35752000     19.56585000
S       0.00000000     -0.01196700      1.50811700
   4
    0.00000019
H       0.00000000     -0.75249900      0.39263800
H       0.00000000      1.13212200      0.81260300
H     -11.24018600    -40.49023500     19.62525100
S       0.00000000     -0.01196700      1.50811700
   4
    0.00000019
H       0.00000000     -0.75249900      0.39263800
H       0.00000000      1.13212200      0.81260300
H     -11.27704000    -40.62295100     19.68465100
S       0.00000000     -0.01196700      1.50811700
   4
    0.00000019
H       0.00000000     -0.75249900      0.39263800
H       0.00000000      1.13212200      0.81260300
H     -11.31389300    -40.75566700     19.74405200
S       0.00000000     -0.01196700      1.50811700
   4
    0.00000019
H       0.00000000     -0.75249900      0.39263800
H       0.00000000      1.13212200      0.81260300
H     -11.35074600    -40.88838200     19.80345200
S       0.00000000     -0.01196700      1.50811700
   4
    0.00000019
H       0.00000000     -0.75249900      0.39263800
H       0.00000000      1.13212200      0.81260300
H     -11.38759900    -41.02109800     19.86285300
S       0.00000000     -0.01196700      1.50811700
   4
    0.00000019
H       0.00000000     -0.75249900      0.39263800
H       0.00000000      1.13212200      0.81260300
H     -11.42445200    -41.15381300     19.92225300
S       0.00000000     -0.01196700      1.50811700
   4
    0.00000019
H       0.00000000     -0.75249900      0.39263800
H       0.00000000      1.13212200      0.81260300
H     -11.46130500    -41.28652900     19.98165300
S       0.00000000     -0.01196700      1.50811700
   4
    0.00000019
H       0.00000000     -0.75249900      0.39263800
H       0.00000000      1.13212200      0.81260300
H     -11.49815800    -41.41924500     20.04105400
S       0.00000000     -0.01196700      1.50811700
   4
    0.00000019
H       0.00000000     -0.75249900      0.39263800
H       0.00000000      1.13212200      0.81260300
H     -11.53501100    -41.55196000     20.10045400
S       0.00000000     -0.01196700      1.50811700
   4
    0.00000019
H       0.00000000     -0.75249900      0.39263800
H       0.00000000      1.13212200      0.81260300
H     -11.57186400    -41.68467600     20.15985500
S       0.00000000     -0.01196700      1.50811700
