   4
   -0.00896730
H      -1.26630700     -0.05516700      0.17678800
H      -0.10667300     -0.51097000      3.34748400
H      -0.12901700     -0.18771500     -1.37767200
S       0.04758000      0.02365800     -0.06754100
   4
   -0.00882369
H      -1.26387200     -0.06384700      0.18766200
H      -0.10864300     -0.51022000      3.39372300
H      -0.14004200     -0.17915100     -1.37782200
S       0.04784800      0.02366400     -0.06935800
   4
   -0.00882644
H      -1.26589500     -0.06101700      0.18221100
H      -0.09440500     -0.50390800      3.34938500
H      -0.13490200     -0.19191100     -1.38016700
S       0.04723900      0.02380300     -0.06773600
   4
   -0.00880327
H      -1.26815400     -0.05527000      0.17638400
H      -0.08482100     -0.50178500      3.30602000
H      -0.12492900     -0.20473800     -1.37070700
S       0.04667800      0.02396600     -0.06648900
   4
   -0.00860179
H      -1.27009700     -0.05174600      0.17013600
H      -0.07762300     -0.49718500      3.26074700
H      -0.12120800     -0.21370900     -1.37741300
S       0.04638600      0.02399700     -0.06465600
   4
   -0.00857537
H      -1.27206600     -0.04602600      0.16479200
H      -0.06939600     -0.49511400      3.21716000
H      -0.11087600     -0.22438600     -1.36525300
S       0.04585600      0.02409100     -0.06349900
   4
   -0.00841750
H      -1.27374100     -0.04322300      0.15934700
H      -0.06284600     -0.48902900      3.17009800
H      -0.10763600     -0.23062500     -1.37172100
S       0.04559200      0.02401100     -0.06164300
   4
   -0.00816777
H      -1.27546700     -0.03818600      0.15441900
H      -0.05492900     -0.48589900      3.12310200
H      -0.09909700     -0.24116000     -1.36236300
S       0.04511800      0.02409000     -0.06030500
   4
   -0.00762725
H      -1.27694100     -0.03520000      0.14962000
H      -0.04825100     -0.47940000      3.07314200
H      -0.09488600     -0.24736100     -1.36461500
S       0.04481100      0.02399200     -0.05851100
   4
   -0.00683783
H      -1.27839600     -0.03112500      0.14529000
H      -0.04129400     -0.47466500      3.02282300
H      -0.08820200     -0.25581500     -1.35883700
S       0.04441900      0.02398400     -0.05697400
   4
   -0.00572232
H      -1.27966200     -0.02804800      0.14116800
H      -0.03533400     -0.46855300      2.97141300
H      -0.08367500     -0.26229400     -1.35837500
S       0.04412200      0.02390200     -0.05524000
   4
   -0.00425951
H      -1.28086000     -0.02465400      0.13747200
H      -0.02949900     -0.46306500      2.91987400
H      -0.07820900     -0.26910600     -1.35441100
S       0.04379800      0.02384000     -0.05362600
   4
   -0.00237319
H      -1.28191400     -0.02177300      0.13403000
H      -0.02431300     -0.45705000      2.86797300
H      -0.07385700     -0.27518000     -1.35282500
S       0.04352600      0.02375300     -0.05193400
   4
   -0.00000281
H      -1.28289100     -0.01886600      0.13094700
H      -0.01933300     -0.45118200      2.81599600
H      -0.06921100     -0.28103200     -1.34966400
S       0.04325000      0.02366200     -0.05029900
   4
    0.00293902
H      -1.28375700     -0.01625500      0.12810700
H      -0.01478200     -0.44507500      2.76385600
H      -0.06517500     -0.28656400     -1.34764600
S       0.04300400      0.02356300     -0.04863100
   4
    0.00653738
H      -1.28455100     -0.01371100      0.12555500
H      -0.01044500     -0.43895400      2.71165200
H      -0.06110300     -0.29178900     -1.34487800
S       0.04276200      0.02345600     -0.04699400
   4
    0.01089320
H      -1.28525800     -0.01135900      0.12321400
H      -0.00640600     -0.43269000      2.65935700
H      -0.05739300     -0.29681400     -1.34272100
S       0.04253900      0.02334300     -0.04534100
   4
    0.01610862
H      -1.28590500     -0.00909900      0.12109700
H      -0.00256200     -0.42635100      2.60700900
H      -0.05374900     -0.30154400     -1.34020200
S       0.04232200      0.02322200     -0.04370400
   4
    0.02229270
H      -1.28648600     -0.00698100      0.11915100
H       0.00105800     -0.41988800      2.55460400
H      -0.05034600     -0.30609000     -1.33806900
S       0.04211700      0.02309600     -0.04205900
   4
    0.02955174
H      -1.28702200     -0.00496100      0.11737300
H       0.00450800     -0.41331300      2.50215800
H      -0.04705100     -0.31034900     -1.33578500
S       0.04192100      0.02295900     -0.04042300
   4
    0.03798702
H      -1.28751100     -0.00306000      0.11572800
H       0.00778000     -0.40659800      2.44967400
H      -0.04394800     -0.31439600     -1.33380900
S       0.04173400      0.02281600     -0.03878000
   4
    0.04768388
H      -1.28797500     -0.00125900      0.11420400
H       0.01090200     -0.39973100      2.39716100
H      -0.04097800     -0.31813600     -1.33182800
S       0.04155600      0.02266100     -0.03714100
   4
    0.05870482
H      -1.28841200      0.00043000      0.11277400
H       0.01387200     -0.39268500      2.34462400
H      -0.03819000     -0.32161300     -1.33016000
S       0.04138800      0.02249600     -0.03549300
   4
    0.07107531
H      -1.28883600      0.00201400      0.11142000
H       0.01670600     -0.38543500      2.29207100
H      -0.03556000     -0.32474300     -1.32860700
S       0.04122900      0.02231600     -0.03384400
   4
    0.08477427
H      -1.28924000      0.00348400      0.11010800
H       0.01940600     -0.37795400      2.23951300
H      -0.03313300     -0.32755100     -1.32742000
S       0.04108000      0.02212300     -0.03218400
   4
    0.09972276
H      -1.28962100      0.00483900      0.10879800
H       0.02198700     -0.37021500      2.18695800
H      -0.03091000     -0.32996500     -1.32645500
S       0.04094000      0.02191300     -0.03051800
   4
    0.11577467
H      -1.28995500      0.00607200      0.10743200
H       0.02445700     -0.36219600      2.13442400
H      -0.02894500     -0.33202000     -1.32594000
S       0.04081000      0.02168600     -0.02883600
   4
    0.13271017
H      -1.29022900      0.00718400      0.10593700
H       0.02684200     -0.35388200      2.08192100
H      -0.02725900     -0.33367100     -1.32575600
S       0.04069000      0.02144100     -0.02714100
   4
    0.15022329
H      -1.29042000      0.00816900      0.10422100
H       0.02916600     -0.34527700      2.02947600
H      -0.02591400     -0.33500600     -1.32617100
S       0.04058000      0.02118100     -0.02542300
   4
    0.16791208
H      -1.29054200      0.00903400      0.10219000
H       0.03147000     -0.33639700      1.97710400
H      -0.02493900     -0.33603500     -1.32708300
S       0.04048000      0.02090700     -0.02368100
   4
    0.18524649
H      -1.29061500      0.00977700      0.09975400
H       0.03378200     -0.32729000      1.92484300
H      -0.02440200     -0.33694900     -1.32889700
S       0.04039200      0.02062600     -0.02190300
   4
    0.20154544
H      -1.29069600      0.01039700      0.09684600
H       0.03612600     -0.31800700      1.87271000
H      -0.02433900     -0.33779400     -1.33147000
S       0.04031800      0.02034100     -0.02009100
   4
    0.21594118
H      -1.29079400      0.01087100      0.09343100
H       0.03847500     -0.30862400      1.82078700
H      -0.02485800     -0.33886100     -1.33547200
S       0.04026200      0.02006400     -0.01822500
   4
    0.22742959
H      -1.29089800      0.01116600      0.08948500
H       0.04078600     -0.29916100      1.76909300
H      -0.02602600     -0.34004100     -1.34032600
S       0.04022900      0.01979500     -0.01632500
   4
    0.23491665
H      -1.29095200      0.01117700      0.08482000
H       0.04297900     -0.28965900      1.71798000
H      -0.02825700     -0.34192200     -1.34806900
S       0.04022900      0.01955600     -0.01433400
   4
    0.23756473
H      -1.29062400      0.01632700      0.07720600
H       0.04544200     -0.27495100      1.66502100
H      -0.03078900     -0.33898300     -1.36087000
S       0.04063300      0.02465400     -0.01466800
   4
    0.23504579
H      -1.29104900      0.01085000      0.07442800
H       0.04715200     -0.27087100      1.61689800
H      -0.03407300     -0.34667200     -1.36883500
S       0.04028400      0.01912400     -0.01016600
   4
    0.22825666
H      -1.29117500      0.01058400      0.06863600
H       0.04931000     -0.26155200      1.56726200
H      -0.03751400     -0.34944400     -1.38176700
S       0.04033100      0.01892400     -0.00800400
   4
    0.21989136
H      -1.29160700      0.01029400      0.06178200
H       0.05203800     -0.25220000      1.51939200
H      -0.04162600     -0.35300600     -1.39878400
S       0.04038900      0.01874800     -0.00574100
   4
    0.21453842
H      -1.29240600      0.01020200      0.05308000
H       0.05620700     -0.24281700      1.47427500
H      -0.04621800     -0.35721900     -1.42032100
S       0.04042900      0.01858500     -0.00336700
