   4
   -0.00690502
H      -1.29634800      0.00000000     -0.06529100
H       0.17783400      0.00000000      1.18073800
H      -0.14219800      0.00000000      3.68217000
S       0.03979000      0.00000000     -0.15125500
   4
   -0.00647890
H      -1.29660800      0.00000000     -0.06653200
H       0.17491000      0.00000000      1.18263300
H      -0.13702100      0.00000000      3.63044100
S       0.03971500      0.00000000     -0.14962900
   4
   -0.00585423
H      -1.29686100      0.00000000     -0.06795100
H       0.17183600      0.00000000      1.18452500
H      -0.13215000      0.00000000      3.57869600
S       0.03965900      0.00000000     -0.14800200
   4
   -0.00499005
H      -1.29710900      0.00000000     -0.06949700
H       0.16866400      0.00000000      1.18643700
H      -0.12744300      0.00000000      3.52694700
S       0.03961200      0.00000000     -0.14637600
   4
   -0.00383923
H      -1.29735300      0.00000000     -0.07115000
H       0.16538900      0.00000000      1.18832400
H      -0.12281900      0.00000000      3.47520100
S       0.03957300      0.00000000     -0.14474700
   4
   -0.00234748
H      -1.29759600      0.00000000     -0.07288300
H       0.16206500      0.00000000      1.19025300
H      -0.11825200      0.00000000      3.42345700
S       0.03953800      0.00000000     -0.14311900
   4
   -0.00045342
H      -1.29783400      0.00000000     -0.07469100
H       0.15865000      0.00000000      1.19211600
H      -0.11370200      0.00000000      3.37172100
S       0.03950700      0.00000000     -0.14148700
   4
    0.00191296
H      -1.29807200      0.00000000     -0.07654600
H       0.15522500      0.00000000      1.19409000
H      -0.10918100      0.00000000      3.31998600
S       0.03947800      0.00000000     -0.13985800
   4
    0.00482880
H      -1.29830300      0.00000000     -0.07845800
H       0.15169800      0.00000000      1.19589000
H      -0.10464800      0.00000000      3.26826300
S       0.03945100      0.00000000     -0.13822300
   4
    0.00838143
H      -1.29853300      0.00000000     -0.08038000
H       0.14820900      0.00000000      1.19801400
H      -0.10014700      0.00000000      3.21653600
S       0.03942500      0.00000000     -0.13659800
   4
    0.01266332
H      -1.29875200      0.00000000     -0.08235300
H       0.14457300      0.00000000      1.19962000
H      -0.09561000      0.00000000      3.16482800
S       0.03940200      0.00000000     -0.13495600
   4
    0.01777749
H      -1.29896900      0.00000000     -0.08427100
H       0.14105800      0.00000000      1.20223900
H      -0.09113000      0.00000000      3.11311300
S       0.03937800      0.00000000     -0.13334800
   4
    0.02382770
H      -1.29917000      0.00000000     -0.08627200
H       0.13728800      0.00000000      1.20309900
H      -0.08658400      0.00000000      3.06145800
S       0.03935800      0.00000000     -0.13168400
   4
    0.03092305
H      -1.29936400      0.00000000     -0.08808100
H       0.13384200      0.00000000      1.20757000
H      -0.08215800      0.00000000      3.00985600
S       0.03933300      0.00000000     -0.13014200
   4
    0.03919585
H      -1.29953600      0.00000000     -0.09007500
H       0.12984000      0.00000000      1.20496800
H      -0.07765800      0.00000000      2.95872800
S       0.03932200      0.00000000     -0.12838600
   4
    0.04873279
H      -1.29971500      0.00000000     -0.09157200
H       0.12697400      0.00000000      1.21772800
H      -0.07347900      0.00000000      2.90899900
S       0.03928600      0.00000000     -0.12717400
   4
    0.05917391
H      -1.29979200      0.00000000     -0.09312400
H       0.12243400      0.00000000      1.20450900
H      -0.06934500      0.00000000      2.86070700
S       0.03930100      0.00000000     -0.12518700
   4
    0.06991260
H      -1.29998400      0.00000000     -0.09426500
H       0.11961100      0.00000000      1.22419100
H      -0.06525300      0.00000000      2.81261100
S       0.03926600      0.00000000     -0.12425700
   4
    0.08233872
H      -1.30003600      0.00000000     -0.09531400
H       0.11498500      0.00000000      1.21625500
H      -0.06104100      0.00000000      2.76193400
S       0.03928100      0.00000000     -0.12237800
   4
    0.09639194
H      -1.30017300      0.00000000     -0.09613900
H       0.11105400      0.00000000      1.22819000
H      -0.05673400      0.00000000      2.71121300
S       0.03927300      0.00000000     -0.12113200
   4
    0.11171219
H      -1.30025200      0.00000000     -0.09641000
H       0.10622700      0.00000000      1.23031200
H      -0.05247900      0.00000000      2.65951700
S       0.03929300      0.00000000     -0.11956300
   4
    0.12744124
H      -1.30037500      0.00000000     -0.09624700
H       0.10148300      0.00000000      1.24179200
H      -0.04828000      0.00000000      2.60873700
S       0.03931400      0.00000000     -0.11833300
   4
    0.14280524
H      -1.30049700      0.00000000     -0.09520600
H       0.09593800      0.00000000      1.25071800
H      -0.04416400      0.00000000      2.55771900
S       0.03936200      0.00000000     -0.11704300
   4
    0.15524359
H      -1.30069200      0.00000000     -0.09352000
H       0.09058800      0.00000000      1.27278000
H      -0.04031000      0.00000000      2.51050400
S       0.03941600      0.00000000     -0.11630900
   4
    0.16099092
H      -1.30112100      0.00000000     -0.09202400
H       0.08595000      0.00000000      1.30599100
H      -0.03721500      0.00000000      2.46965100
S       0.03928700      0.00000000     -0.11657200
   4
    0.15198828
H      -1.30120200      0.00000000     -0.08969400
H       0.08166100      0.00000000      1.34003700
H      -0.03377200      0.00000000      2.42963300
S       0.03950700      0.00000000     -0.11600000
   4
    0.11913765
H      -1.30149700      0.00000000     -0.08771400
H       0.07796800      0.00000000      1.37983200
H      -0.03105800      0.00000000      2.39518100
S       0.03954700      0.00000000     -0.11622900
   4
    0.05956808
H      -1.30183600      0.00000000     -0.08573900
H       0.07482200      0.00000000      1.42386800
H      -0.02875300      0.00000000      2.36634300
S       0.03958400      0.00000000     -0.11677000
   4
   -0.01659692
H      -1.30219000      0.00000000     -0.08353200
H       0.07204100      0.00000000      1.47079600
H      -0.02689900      0.00000000      2.34266500
S       0.03962500      0.00000000     -0.11757300
   4
   -0.08583353
H      -1.30236100      0.00000000     -0.08058700
H       0.06990600      0.00000000      1.52099800
H      -0.02606400      0.00000000      2.32789800
S       0.03967100      0.00000000     -0.11878300
   4
   -0.13566703
H      -1.30201800      0.00000000     -0.07561400
H       0.06998600      0.00000000      1.57137200
H      -0.02848500      0.00000000      2.33757600
S       0.03973400      0.00000000     -0.12083500
   4
   -0.18224343
H      -1.30142100      0.00000000     -0.06965500
H       0.07331400      0.00000000      1.60688600
H      -0.03458100      0.00000000      2.37307200
S       0.03980200      0.00000000     -0.12326400
   4
   -0.22473654
H      -1.30073400      0.00000000     -0.06471300
H       0.07612400      0.00000000      1.64820000
H      -0.03950800      0.00000000      2.40232800
S       0.03984700      0.00000000     -0.12564700
   4
   -0.26368620
H      -1.30051100      0.00000000     -0.05937800
H       0.08026200      0.00000000      1.68434800
H      -0.04581500      0.00000000      2.43727200
S       0.03990900      0.00000000     -0.12805800
   4
   -0.29911938
H      -1.30018100      0.00000000     -0.05459900
H       0.08349400      0.00000000      1.72504700
H      -0.05095800      0.00000000      2.46731500
S       0.03995800      0.00000000     -0.13044200
   4
   -0.33127215
H      -1.30014800      0.00000000     -0.04925000
H       0.08891000      0.00000000      1.75932700
H      -0.05827200      0.00000000      2.50372600
S       0.04001700      0.00000000     -0.13284100
   4
   -0.36021752
H      -1.29972100      0.00000000     -0.04496600
H       0.09174000      0.00000000      1.80150900
H      -0.06274500      0.00000000      2.53182700
S       0.04005500      0.00000000     -0.13519400
   4
   -0.38601444
H      -1.29971800      0.00000000     -0.03944700
H       0.09949400      0.00000000      1.83175300
H      -0.07203900      0.00000000      2.57061100
S       0.04010400      0.00000000     -0.13754600
   4
   -0.40957825
H      -1.29909700      0.00000000     -0.03576600
H       0.10115300      0.00000000      1.87579000
H      -0.07513000      0.00000000      2.59535500
S       0.04012900      0.00000000     -0.13983100
   4
   -0.43131823
H      -1.29887600      0.00000000     -0.03052100
H       0.11049600      0.00000000      1.90496500
H      -0.08553600      0.00000000      2.63377900
S       0.04015600      0.00000000     -0.14212900
   4
   -0.45159926
H      -1.29829500      0.00000000     -0.02650200
H       0.11340500      0.00000000      1.94704900
H      -0.08979000      0.00000000      2.66113400
S       0.04018000      0.00000000     -0.14444600
   4
   -0.46991321
H      -1.29770100      0.00000000     -0.02131700
H       0.12267000      0.00000000      1.98118600
H      -0.09988400      0.00000000      2.69595400
S       0.04018700      0.00000000     -0.14678500
   4
   -0.48652770
H      -1.29703900      0.00000000     -0.01698500
H       0.12787800      0.00000000      2.02100400
H      -0.10616600      0.00000000      2.72653100
S       0.04020000      0.00000000     -0.14914200
   4
   -0.50146477
H      -1.29629100      0.00000000     -0.01176300
H       0.13736700      0.00000000      2.05749400
H      -0.11629500      0.00000000      2.75918200
S       0.04019600      0.00000000     -0.15148800
   4
   -0.51493635
H      -1.29549700      0.00000000     -0.00739400
H       0.14377600      0.00000000      2.09687400
H      -0.12350000      0.00000000      2.79003700
S       0.04019600      0.00000000     -0.15384100
   4
   -0.52696728
H      -1.29467100      0.00000000     -0.00196000
H       0.15425900      0.00000000      2.13409800
H      -0.13439800      0.00000000      2.82132900
S       0.04018300      0.00000000     -0.15617400
   4
   -0.53774033
H      -1.29376300      0.00000000      0.00217300
H       0.16053500      0.00000000      2.17398300
H      -0.14131500      0.00000000      2.85160400
S       0.04017500      0.00000000     -0.15851800
   4
   -0.54717984
H      -1.29288500      0.00000000      0.00837500
H       0.17343300      0.00000000      2.21086000
H      -0.15436400      0.00000000      2.88138900
S       0.04015200      0.00000000     -0.16081600
   4
   -0.55538924
H      -1.29185100      0.00000000      0.01132800
H       0.17621900      0.00000000      2.25190800
H      -0.15791100      0.00000000      2.91078900
S       0.04014300      0.00000000     -0.16313200
   4
   -0.56195523
H      -1.29102800      0.00000000      0.01881700
H       0.19471800      0.00000000      2.28529100
H      -0.17594900      0.00000000      2.93792000
S       0.04010300      0.00000000     -0.16527700
   4
   -0.56818515
H      -1.28993800      0.00000000      0.02133300
H       0.19183700      0.00000000      2.32657200
H      -0.17457500      0.00000000      2.96453500
S       0.04011600      0.00000000     -0.16749700
   4
   -0.57396279
H      -1.28885900      0.00000000      0.02735900
H       0.21040200      0.00000000      2.35921300
H      -0.19216500      0.00000000      2.99096800
S       0.04005100      0.00000000     -0.16955000
   4
   -0.57948057
H      -1.28803100      0.00000000      0.03194300
H       0.21203900      0.00000000      2.40018500
H      -0.19519000      0.00000000      3.01790300
S       0.04006900      0.00000000     -0.17183700
   4
   -0.58398240
H      -1.28656900      0.00000000      0.03862100
H       0.22594600      0.00000000      2.43829900
H      -0.20911800      0.00000000      3.04413300
S       0.04002300      0.00000000     -0.17407700
   4
   -0.58799642
H      -1.28521900      0.00000000      0.04431800
H       0.23099000      0.00000000      2.47955800
H      -0.21536100      0.00000000      3.07129600
S       0.04001800      0.00000000     -0.17641500
   4
   -0.59128669
H      -1.28369100      0.00000000      0.05216600
H       0.24339000      0.00000000      2.51921700
H      -0.22847500      0.00000000      3.09656000
S       0.03999200      0.00000000     -0.17871000
   4
   -0.59416713
H      -1.28192300      0.00000000      0.05815100
H       0.24723300      0.00000000      2.56060600
H      -0.23388700      0.00000000      3.12347700
S       0.03998600      0.00000000     -0.18105300
   4
   -0.59631231
H      -1.28027200      0.00000000      0.06742200
H       0.26068500      0.00000000      2.59967400
H      -0.24845500      0.00000000      3.14671300
S       0.03996900      0.00000000     -0.18331000
   4
   -0.59814431
H      -1.27816700      0.00000000      0.07300900
H       0.25980400      0.00000000      2.64002400
H      -0.24989200      0.00000000      3.17342500
S       0.03997500      0.00000000     -0.18560200
   4
   -0.59925896
H      -1.27636100      0.00000000      0.08246800
H       0.27614500      0.00000000      2.67616600
H      -0.26701000      0.00000000      3.19347100
S       0.03994300      0.00000000     -0.18767100
   4
   -0.60094269
H      -1.27439400      0.00000000      0.08941700
H       0.27186400      0.00000000      2.71449600
H      -0.26607900      0.00000000      3.21878500
S       0.03998600      0.00000000     -0.18989700
   4
   -0.60213016
H      -1.27170300      0.00000000      0.09813300
H       0.28564900      0.00000000      2.75154900
H      -0.28103000      0.00000000      3.23944000
S       0.03993800      0.00000000     -0.19199200
   4
   -0.60335727
H      -1.26964600      0.00000000      0.10757700
H       0.28483900      0.00000000      2.79093900
H      -0.28415500      0.00000000      3.26432400
S       0.03999700      0.00000000     -0.19431600
   4
   -0.60405822
H      -1.26627100      0.00000000      0.11754800
H       0.29406200      0.00000000      2.83095300
H      -0.29629600      0.00000000      3.28664700
S       0.03998200      0.00000000     -0.19659600
   4
   -0.60473280
H      -1.26341900      0.00000000      0.12832800
H       0.29437900      0.00000000      2.87112500
H      -0.30161100      0.00000000      3.31132200
S       0.04004900      0.00000000     -0.19898100
   4
   -0.60506699
H      -1.25963100      0.00000000      0.13997800
H       0.30142300      0.00000000      2.91163100
H      -0.31343700      0.00000000      3.33334200
S       0.04008000      0.00000000     -0.20132100
   4
   -0.60541310
H      -1.25590800      0.00000000      0.15134100
H       0.30020700      0.00000000      2.95124400
H      -0.31856500      0.00000000      3.35770200
S       0.04016200      0.00000000     -0.20369600
   4
   -0.60540934
H      -1.25178000      0.00000000      0.16480900
H       0.30707800      0.00000000      2.99066500
H      -0.33131800      0.00000000      3.37784600
S       0.04021700      0.00000000     -0.20599900
   4
   -0.60550699
H      -1.24708200      0.00000000      0.17609600
H       0.30317600      0.00000000      3.02846900
H      -0.33391400      0.00000000      3.40209800
S       0.04027300      0.00000000     -0.20831200
   4
   -0.60519990
H      -1.24275400      0.00000000      0.19086500
H       0.31183500      0.00000000      3.06586000
H      -0.34781600      0.00000000      3.41952800
S       0.04030200      0.00000000     -0.21050600
   4
   -0.60535956
H      -1.23737900      0.00000000      0.20299500
H       0.30550300      0.00000000      3.10151300
H      -0.34801500      0.00000000      3.44343600
S       0.04033800      0.00000000     -0.21276600
   4
   -0.60522936
H      -1.23199100      0.00000000      0.21700700
H       0.31359500      0.00000000      3.13871800
H      -0.36130400      0.00000000      3.46081400
S       0.04033100      0.00000000     -0.21492800
   4
   -0.60542130
H      -1.22682200      0.00000000      0.23277500
H       0.30763200      0.00000000      3.17422500
H      -0.36384300      0.00000000      3.48346400
S       0.04043600      0.00000000     -0.21725900
   4
   -0.60524752
H      -1.21924900      0.00000000      0.24444800
H       0.31155100      0.00000000      3.21299900
H      -0.37567600      0.00000000      3.50288000
S       0.04044600      0.00000000     -0.21946200
   4
   -0.60512281
H      -1.21509800      0.00000000      0.26478500
H       0.30495000      0.00000000      3.24724700
H      -0.38252500      0.00000000      3.52262900
S       0.04073800      0.00000000     -0.22180600
   4
   -0.60489525
H      -1.20520300      0.00000000      0.26991800
H       0.30534400      0.00000000      3.28438300
H      -0.39323800      0.00000000      3.54186400
S       0.04075000      0.00000000     -0.22374600
   4
   -0.60451579
H      -1.20299400      0.00000000      0.29658300
H       0.30100200      0.00000000      3.31556900
H      -0.40040300      0.00000000      3.55763500
S       0.04104300      0.00000000     -0.22606700
   4
   -0.60452552
H      -1.19074600      0.00000000      0.29893800
H       0.30111500      0.00000000      3.35139000
H      -0.40598800      0.00000000      3.57779000
S       0.04082900      0.00000000     -0.22790600
   4
   -0.60432860
H      -1.18725200      0.00000000      0.32281400
H       0.29799700      0.00000000      3.38322800
H      -0.41600700      0.00000000      3.59229100
S       0.04113200      0.00000000     -0.23012000
   4
   -0.60476022
H      -1.19394000      0.00000000      0.30220700
H       0.29467900      0.00000000      3.34774100
H      -0.41263600      0.00000000      3.57436100
S       0.04134000      0.00000000     -0.22778700
